%chk=f00013539.chk
%mem=24GB
%nproc=12
#p b3lyp/6-31G*

title

0 1
Ti	2.81187400	0.19704000	1.10336000
Ti	0.90594400	5.44057000	1.10336000
Ti	4.71781400	5.44057000	1.10336000
Ti	0.90594400	2.47241000	1.99114000
Ti	4.71781400	2.47241000	1.99114000
Ti	2.81187400	7.71594000	1.99115000
O	2.81187400	8.81302000	0.37332000
O	0.90594400	3.56949000	0.37332000
O	4.71781400	3.56949000	0.37332000
O	0.90594400	0.60134000	1.26110000
O	4.71781400	0.60134000	1.26110000
O	2.81187400	5.84486000	1.26111000
O	2.81187400	2.06812000	1.83340000
O	0.90594400	7.31164000	1.83340000
O	4.71781400	7.31164000	1.83340000
O	0.90594400	4.34349000	2.72118000
O	4.71781400	4.34349000	2.72118000
O	2.81187400	9.58701000	2.72118000
Ti	6.62374588	0.19704000	1.10336000
Ti	21.87123776	0.19704000	1.10336000
Ti	8.52968588	5.44057000	1.10336000
Ti	23.77717776	5.44057000	1.10336000
Ti	8.52968588	2.47241000	1.99114000
Ti	23.77717776	2.47241000	1.99114000
Ti	6.62374588	7.71594000	1.99115000
Ti	21.87123776	7.71594000	1.99115000
Ti	10.43561588	0.19704000	1.10336000
Ti	25.68310776	0.19704000	1.10336000
Ti	14.24749588	0.19704000	1.10336000
Ti	29.49498776	0.19704000	1.10336000
Ti	18.05936588	0.19704000	1.10336000
Ti	12.34155588	5.44057000	1.10336000
Ti	27.58904776	5.44057000	1.10336000
Ti	16.15343588	5.44057000	1.10336000
Ti	19.96530588	5.44057000	1.10336000
Ti	12.34155588	2.47241000	1.99114000
Ti	27.58904776	2.47241000	1.99114000
Ti	16.15343588	2.47241000	1.99114000
Ti	19.96530588	2.47241000	1.99114000
Ti	10.43561588	7.71594000	1.99115000
Ti	25.68310776	7.71594000	1.99115000
Ti	14.24749588	7.71594000	1.99115000
Ti	29.49498776	7.71594000	1.99115000
Ti	18.05936588	7.71594000	1.99115000
O	6.62374588	8.81302000	0.37332000
O	21.87123776	8.81302000	0.37332000
O	8.52968588	3.56949000	0.37332000
O	23.77717776	3.56949000	0.37332000
O	8.52968588	0.60134000	1.26110000
O	23.77717776	0.60134000	1.26110000
O	6.62374588	5.84486000	1.26111000
O	21.87123776	5.84486000	1.26111000
O	6.62374588	2.06812000	1.83340000
O	21.87123776	2.06812000	1.83340000
O	8.52968588	7.31164000	1.83340000
O	23.77717776	7.31164000	1.83340000
O	8.52968588	4.34349000	2.72118000
O	23.77717776	4.34349000	2.72118000
O	6.62374588	9.58701000	2.72118000
O	21.87123776	9.58701000	2.72118000
O	10.43561588	8.81302000	0.37332000
O	25.68310776	8.81302000	0.37332000
O	14.24749588	8.81302000	0.37332000
O	29.49498776	8.81302000	0.37332000
O	18.05936588	8.81302000	0.37332000
O	12.34155588	3.56949000	0.37332000
O	27.58904776	3.56949000	0.37332000
O	16.15343588	3.56949000	0.37332000
O	19.96530588	3.56949000	0.37332000
O	12.34155588	0.60134000	1.26110000
O	27.58904776	0.60134000	1.26110000
O	16.15343588	0.60134000	1.26110000
O	19.96530588	0.60134000	1.26110000
O	10.43561588	5.84486000	1.26111000
O	25.68310776	5.84486000	1.26111000
O	14.24749588	5.84486000	1.26111000
O	29.49498776	5.84486000	1.26111000
O	18.05936588	5.84486000	1.26111000
O	10.43561588	2.06812000	1.83340000
O	25.68310776	2.06812000	1.83340000
O	14.24749588	2.06812000	1.83340000
O	29.49498776	2.06812000	1.83340000
O	18.05936588	2.06812000	1.83340000
O	12.34155588	7.31164000	1.83340000
O	27.58904776	7.31164000	1.83340000
O	16.15343588	7.31164000	1.83340000
O	19.96530588	7.31164000	1.83340000
O	12.34155588	4.34349000	2.72118000
O	27.58904776	4.34349000	2.72118000
O	16.15343588	4.34349000	2.72118000
O	19.96530588	4.34349000	2.72118000
O	10.43561588	9.58701000	2.72118000
O	25.68310776	9.58701000	2.72118000
O	14.24749588	9.58701000	2.72118000
O	29.49498776	9.58701000	2.72118000
O	18.05936588	9.58701000	2.72118000
Ti	2.81187400	10.68408607	1.10336000
Ti	2.81187400	21.17113214	1.10336000
Ti	0.90594400	15.92761607	1.10336000
Ti	0.90594400	26.41466214	1.10336000
Ti	4.71781400	15.92761607	1.10336000
Ti	4.71781400	26.41466214	1.10336000
Ti	0.90594400	12.95945607	1.99114000
Ti	0.90594400	23.44650214	1.99114000
Ti	4.71781400	12.95945607	1.99114000
Ti	4.71781400	23.44650214	1.99114000
Ti	2.81187400	18.20298607	1.99115000
Ti	2.81187400	28.69003214	1.99115000
O	2.81187400	19.30006607	0.37332000
O	2.81187400	29.78711214	0.37332000
O	0.90594400	14.05653607	0.37332000
O	0.90594400	24.54358214	0.37332000
O	4.71781400	14.05653607	0.37332000
O	4.71781400	24.54358214	0.37332000
O	0.90594400	11.08838607	1.26110000
O	0.90594400	21.57543214	1.26110000
O	4.71781400	11.08838607	1.26110000
O	4.71781400	21.57543214	1.26110000
O	2.81187400	16.33190607	1.26111000
O	2.81187400	26.81895214	1.26111000
O	2.81187400	12.55516607	1.83340000
O	2.81187400	23.04221214	1.83340000
O	0.90594400	17.79868607	1.83340000
O	0.90594400	28.28573214	1.83340000
O	4.71781400	17.79868607	1.83340000
O	4.71781400	28.28573214	1.83340000
O	0.90594400	14.83053607	2.72118000
O	0.90594400	25.31758214	2.72118000
O	4.71781400	14.83053607	2.72118000
O	4.71781400	25.31758214	2.72118000
O	2.81187400	20.07405607	2.72118000
O	2.81187400	30.56110214	2.72118000
Ti	6.62374588	10.68408607	1.10336000
Ti	6.62374588	21.17113214	1.10336000
Ti	21.87123776	10.68408607	1.10336000
Ti	21.87123776	21.17113214	1.10336000
Ti	8.52968588	15.92761607	1.10336000
Ti	8.52968588	26.41466214	1.10336000
Ti	23.77717776	15.92761607	1.10336000
Ti	23.77717776	26.41466214	1.10336000
Ti	8.52968588	12.95945607	1.99114000
Ti	8.52968588	23.44650214	1.99114000
Ti	23.77717776	12.95945607	1.99114000
Ti	23.77717776	23.44650214	1.99114000
Ti	6.62374588	18.20298607	1.99115000
Ti	6.62374588	28.69003214	1.99115000
Ti	21.87123776	18.20298607	1.99115000
Ti	21.87123776	28.69003214	1.99115000
Ti	10.43561588	10.68408607	1.10336000
Ti	10.43561588	21.17113214	1.10336000
Ti	25.68310776	10.68408607	1.10336000
Ti	25.68310776	21.17113214	1.10336000
Ti	14.24749588	10.68408607	1.10336000
Ti	14.24749588	21.17113214	1.10336000
Ti	29.49498776	10.68408607	1.10336000
Ti	29.49498776	21.17113214	1.10336000
Ti	18.05936588	10.68408607	1.10336000
Ti	18.05936588	21.17113214	1.10336000
Ti	12.34155588	15.92761607	1.10336000
Ti	12.34155588	26.41466214	1.10336000
Ti	27.58904776	15.92761607	1.10336000
Ti	27.58904776	26.41466214	1.10336000
Ti	16.15343588	15.92761607	1.10336000
Ti	16.15343588	26.41466214	1.10336000
Ti	19.96530588	15.92761607	1.10336000
Ti	19.96530588	26.41466214	1.10336000
Ti	12.34155588	12.95945607	1.99114000
Ti	12.34155588	23.44650214	1.99114000
Ti	27.58904776	12.95945607	1.99114000
Ti	27.58904776	23.44650214	1.99114000
Ti	16.15343588	12.95945607	1.99114000
Ti	16.15343588	23.44650214	1.99114000
Ti	19.96530588	12.95945607	1.99114000
Ti	19.96530588	23.44650214	1.99114000
Ti	10.43561588	18.20298607	1.99115000
Ti	10.43561588	28.69003214	1.99115000
Ti	25.68310776	18.20298607	1.99115000
Ti	25.68310776	28.69003214	1.99115000
Ti	14.24749588	18.20298607	1.99115000
Ti	14.24749588	28.69003214	1.99115000
Ti	29.49498776	18.20298607	1.99115000
Ti	29.49498776	28.69003214	1.99115000
Ti	18.05936588	18.20298607	1.99115000
Ti	18.05936588	28.69003214	1.99115000
O	6.62374588	19.30006607	0.37332000
O	6.62374588	29.78711214	0.37332000
O	21.87123776	19.30006607	0.37332000
O	21.87123776	29.78711214	0.37332000
O	8.52968588	14.05653607	0.37332000
O	8.52968588	24.54358214	0.37332000
O	23.77717776	14.05653607	0.37332000
O	23.77717776	24.54358214	0.37332000
O	8.52968588	11.08838607	1.26110000
O	8.52968588	21.57543214	1.26110000
O	23.77717776	11.08838607	1.26110000
O	23.77717776	21.57543214	1.26110000
O	6.62374588	16.33190607	1.26111000
O	6.62374588	26.81895214	1.26111000
O	21.87123776	16.33190607	1.26111000
O	21.87123776	26.81895214	1.26111000
O	6.62374588	12.55516607	1.83340000
O	6.62374588	23.04221214	1.83340000
O	21.87123776	12.55516607	1.83340000
O	21.87123776	23.04221214	1.83340000
O	8.52968588	17.79868607	1.83340000
O	8.52968588	28.28573214	1.83340000
O	23.77717776	17.79868607	1.83340000
O	23.77717776	28.28573214	1.83340000
O	8.52968588	14.83053607	2.72118000
O	8.52968588	25.31758214	2.72118000
O	23.77717776	14.83053607	2.72118000
O	23.77717776	25.31758214	2.72118000
O	6.62374588	20.07405607	2.72118000
O	6.62374588	30.56110214	2.72118000
O	21.87123776	20.07405607	2.72118000
O	21.87123776	30.56110214	2.72118000
O	10.43561588	19.30006607	0.37332000
O	10.43561588	29.78711214	0.37332000
O	25.68310776	19.30006607	0.37332000
O	25.68310776	29.78711214	0.37332000
O	14.24749588	19.30006607	0.37332000
O	14.24749588	29.78711214	0.37332000
O	29.49498776	19.30006607	0.37332000
O	29.49498776	29.78711214	0.37332000
O	18.05936588	19.30006607	0.37332000
O	18.05936588	29.78711214	0.37332000
O	12.34155588	14.05653607	0.37332000
O	12.34155588	24.54358214	0.37332000
O	27.58904776	14.05653607	0.37332000
O	27.58904776	24.54358214	0.37332000
O	16.15343588	14.05653607	0.37332000
O	16.15343588	24.54358214	0.37332000
O	19.96530588	14.05653607	0.37332000
O	19.96530588	24.54358214	0.37332000
O	12.34155588	11.08838607	1.26110000
O	12.34155588	21.57543214	1.26110000
O	27.58904776	11.08838607	1.26110000
O	27.58904776	21.57543214	1.26110000
O	16.15343588	11.08838607	1.26110000
O	16.15343588	21.57543214	1.26110000
O	19.96530588	11.08838607	1.26110000
O	19.96530588	21.57543214	1.26110000
O	10.43561588	16.33190607	1.26111000
O	10.43561588	26.81895214	1.26111000
O	25.68310776	16.33190607	1.26111000
O	25.68310776	26.81895214	1.26111000
O	14.24749588	16.33190607	1.26111000
O	14.24749588	26.81895214	1.26111000
O	29.49498776	16.33190607	1.26111000
O	29.49498776	26.81895214	1.26111000
O	18.05936588	16.33190607	1.26111000
O	18.05936588	26.81895214	1.26111000
O	10.43561588	12.55516607	1.83340000
O	10.43561588	23.04221214	1.83340000
O	25.68310776	12.55516607	1.83340000
O	25.68310776	23.04221214	1.83340000
O	14.24749588	12.55516607	1.83340000
O	14.24749588	23.04221214	1.83340000
O	29.49498776	12.55516607	1.83340000
O	29.49498776	23.04221214	1.83340000
O	18.05936588	12.55516607	1.83340000
O	18.05936588	23.04221214	1.83340000
O	12.34155588	17.79868607	1.83340000
O	12.34155588	28.28573214	1.83340000
O	27.58904776	17.79868607	1.83340000
O	27.58904776	28.28573214	1.83340000
O	16.15343588	17.79868607	1.83340000
O	16.15343588	28.28573214	1.83340000
O	19.96530588	17.79868607	1.83340000
O	19.96530588	28.28573214	1.83340000
O	12.34155588	14.83053607	2.72118000
O	12.34155588	25.31758214	2.72118000
O	27.58904776	14.83053607	2.72118000
O	27.58904776	25.31758214	2.72118000
O	16.15343588	14.83053607	2.72118000
O	16.15343588	25.31758214	2.72118000
O	19.96530588	14.83053607	2.72118000
O	19.96530588	25.31758214	2.72118000
O	10.43561588	20.07405607	2.72118000
O	10.43561588	30.56110214	2.72118000
O	25.68310776	20.07405607	2.72118000
O	25.68310776	30.56110214	2.72118000
O	14.24749588	20.07405607	2.72118000
O	14.24749588	30.56110214	2.72118000
O	29.49498776	20.07405607	2.72118000
O	29.49498776	30.56110214	2.72118000
O	18.05936588	20.07405607	2.72118000
O	18.05936588	30.56110214	2.72118000
Ti	6.64395350	9.24579763	4.63598606
Ti	6.63890735	6.27436868	5.37788628
Ti	2.81642018	9.20403119	4.80422761
Ti	0.84277338	3.92705115	4.79466701
Ti	4.64607843	3.99808548	4.85979212
Ti	0.92470911	0.99551489	5.41490308
Ti	4.64493047	1.04186166	5.40794806
Ti	2.71833506	6.27992948	5.40931716
O	6.61294616	7.27722029	3.88706983
O	6.64304938	4.31652666	4.72934743
O	6.64470393	0.59786468	5.55635444
O	6.58114149	7.97696499	6.27012723
O	2.76811844	7.43595327	3.97698686
O	0.79618837	2.14251688	3.89469433
O	4.77316044	2.17348029	3.97735184
O	0.90990811	9.63443959	4.73689047
O	4.72734351	9.59073592	4.76398153
O	2.69150239	4.43003295	4.75400937
O	2.75138965	0.53755530	5.69979437
O	0.90131302	5.71654261	5.72614805
O	4.72139355	5.76352759	5.63673863
O	0.76027492	2.70671312	6.43535518
O	4.88981220	2.75058528	6.37276321
O	2.91627963	7.95682525	6.29630821
Ti	21.75104266	9.26433792	4.84211731
Ti	8.62257300	3.87628420	4.74247837
Ti	23.72997513	3.95921001	4.83438376
Ti	8.59508980	1.02396892	5.50062062
Ti	23.74664326	1.09415762	5.45848136
Ti	21.88233196	6.30136051	5.59450754
Ti	10.57457238	9.27795860	4.74425246
Ti	25.56312862	9.21719674	4.69616238
Ti	14.29821830	9.27187235	4.75009799
Ti	29.47036442	9.24394120	4.71244531
Ti	18.06393956	9.24177816	4.72515551
Ti	12.27032964	3.90554161	4.76201695
Ti	27.53603618	4.00758853	4.60694036
Ti	16.14571084	3.97949677	4.73616045
Ti	19.94709832	3.90190933	4.62409946
Ti	12.33968668	1.01829249	5.53265555
Ti	27.64223193	1.08757312	5.49315287
Ti	16.17352825	1.09115273	5.50017907
Ti	20.02635494	1.02438951	5.44629272
Ti	10.42392523	6.31396114	5.41354796
Ti	25.67790917	6.31773060	5.48146466
Ti	14.19759279	6.35465264	5.45813539
Ti	29.45307480	6.25413553	5.41491910
Ti	18.03209238	6.22870828	5.61316220
O	21.74800889	7.27433123	4.01566218
O	8.49741795	2.12486443	3.93006818
O	23.76007895	2.16530703	3.93445020
O	8.56263849	9.75050193	4.75540661
O	23.74054624	9.59317078	4.82235824
O	21.86944444	4.41518222	4.68361172
O	21.93603048	0.55878528	5.83020163
O	8.54271987	5.68690983	5.88861758
O	23.73562740	5.84500209	5.73965271
O	8.69369029	2.81223923	6.41969841
O	23.75766787	2.74746734	6.33789148
O	21.90791332	8.03967173	6.45028811
O	10.40368532	7.35115884	3.85208748
O	25.55234680	7.33383409	3.91784792
O	14.22784724	7.38328206	3.91831023
O	29.32281616	7.26110525	3.85707985
O	18.30987257	7.39112601	3.98464931
O	12.32650034	2.10088197	3.91668797
O	27.49667043	2.14810235	3.89384977
O	16.21098968	2.03969945	3.92249604
O	19.88129863	2.05373975	3.92324776
O	12.42118232	9.70602004	4.84335036
O	27.54823719	9.64641367	4.74459396
O	16.17846025	9.81468810	4.69538541
O	19.89935677	9.68808456	4.99037361
O	10.40275052	4.47695411	4.63642395
O	25.63609462	4.37314330	4.81702031
O	14.21951176	4.43807115	4.71055783
O	29.46913655	4.42675095	4.69122967
O	18.02675195	4.38891461	4.85226193
O	10.42280536	0.51677728	5.76641612
O	25.70020126	0.52629172	5.76899981
O	14.25942733	0.59609699	5.71892870
O	29.49998781	0.52966491	5.63490192
O	18.05048803	0.51411928	5.70111621
O	12.28833872	5.75235140	5.81372916
O	27.56258842	5.88545198	5.61473506
O	16.05172854	5.84201507	5.70349670
O	19.97093512	5.74104320	5.84781939
O	12.23450181	2.81726764	6.34147706
O	27.48602400	2.78138640	6.34009587
O	15.96481733	2.85788729	6.29851563
O	20.17376187	2.71139161	6.34311948
O	10.26308742	8.19958768	6.34674813
O	25.95694498	8.05511122	6.27442727
O	14.53204554	8.10591469	6.32339353
O	29.52886014	7.99899319	6.22206432
O	18.06061299	7.92077661	6.39038794
Ti	6.61810021	19.66089453	4.73718669
Ti	6.64478812	30.30824795	4.78742024
Ti	6.73177494	16.74998671	5.47196257
Ti	6.66880372	27.27929860	5.46613515
Ti	2.82737604	19.66361808	4.89963876
Ti	2.78910801	30.17602392	4.69966109
Ti	0.97658603	14.46567982	4.80406830
Ti	0.97370988	25.06019043	4.72455248
Ti	4.79461039	14.43835001	4.81177410
Ti	4.75308191	24.99068150	4.68785627
Ti	0.98447415	11.58348830	5.52328257
Ti	0.90454607	22.12407409	5.54616171
Ti	4.61506812	11.50538046	5.45196985
Ti	4.74588737	21.94458424	5.34689106
Ti	2.94139926	16.72694852	5.44730703
Ti	2.92334005	27.24656598	5.41426974
O	6.45064140	17.84635897	3.89960423
O	6.71165983	28.37289147	3.95542524
O	6.63060060	14.88293479	4.78310821
O	6.66089973	25.46300625	4.74528239
O	6.61756059	11.00491368	5.71452993
O	6.66120184	21.59689203	5.68510334
O	6.91708272	18.51287402	6.35843715
O	6.76349825	29.09014611	6.26849775
O	3.01091394	17.90153379	3.94923284
O	2.92297752	28.31880212	3.87735372
O	1.11239776	12.62488532	3.99804012
O	1.04460860	23.16978684	3.93401506
O	4.44821147	12.54320774	3.88363226
O	4.70662824	23.10040551	3.88806199
O	0.88931486	20.22248016	4.90087501
O	0.87685880	30.47260251	4.84767198
O	4.76722350	20.04363841	4.81897392
O	4.71403159	30.56543664	4.84504506
O	2.85149698	14.80894428	4.87379113
O	2.86579746	25.33156541	4.83835948
O	2.83988519	10.98336190	5.89068794
O	2.85158728	21.48473602	5.65235819
O	0.96448065	16.41830273	5.61041572
O	0.98174920	26.89590986	5.61545692
O	4.81284132	16.26214183	5.87676457
O	4.79499299	26.87416906	5.77056708
O	0.86572034	13.41180871	6.40424099
O	0.95815512	23.87264566	6.34375794
O	4.77690845	13.25533677	6.26233010
O	4.72824513	23.67161419	6.28900690
O	2.92230685	18.47001891	6.46743038
O	2.77293751	29.00738603	6.31185956
Ti	21.90036140	19.69579724	4.79370704
Ti	21.89020647	30.27816867	4.72611081
Ti	8.56768246	14.49385824	4.80334306
Ti	8.60588811	24.94978324	4.66677909
Ti	23.96917460	14.55060898	4.80454093
Ti	23.72023308	24.95865842	4.73174441
Ti	8.59713745	11.54253600	5.61165486
Ti	8.59815896	22.03817717	5.69013858
Ti	23.76460998	11.47151978	5.49393656
Ti	23.92543972	22.08166610	5.48356753
Ti	21.96086500	16.80957524	5.59288413
Ti	21.91246992	27.38739247	5.61078861
Ti	10.49337907	19.83864757	4.83515818
Ti	10.38291637	30.16531732	4.74627306
Ti	25.81255014	19.73822480	4.68179720
Ti	25.63135141	30.09505914	4.76070672
Ti	14.33318221	19.78411095	4.68416553
Ti	14.25917356	30.29251172	4.71852518
Ti	29.52070724	19.69483822	4.74141664
Ti	29.43800739	30.15257482	4.84437035
Ti	18.13270518	19.80296601	4.84036943
Ti	18.09141099	30.26447640	4.72421351
Ti	12.34915251	14.50059693	4.81942606
Ti	12.39295607	24.93669680	4.84846716
Ti	27.73912412	14.38851189	4.87476790
Ti	27.67371715	24.95698369	4.77988154
Ti	16.14083547	14.62338594	4.64269880
Ti	16.19834444	25.03667845	4.74301643
Ti	19.97724939	14.58584177	4.69604316
Ti	19.97406576	25.02310847	4.82203164
Ti	12.32908270	11.58905232	5.54164748
Ti	12.42693108	22.00752259	5.60410341
Ti	27.62986628	11.49452226	5.47749777
Ti	27.60489919	22.03028041	5.45575419
Ti	16.11854445	11.64726183	5.53388741
Ti	16.32763680	22.13479844	5.55179819
Ti	19.89138894	11.77309074	5.48521567
Ti	20.13664647	22.11296803	5.59484481
Ti	10.47694495	16.87833723	5.50743425
Ti	10.42541434	27.30378308	5.59030024
Ti	25.76066643	16.84915200	5.47376881
Ti	25.72426330	27.18398963	5.51410815
Ti	14.26738753	16.90363483	5.65718304
Ti	14.36833805	27.30246592	5.54843195
Ti	29.47110207	16.76536225	5.46357993
Ti	29.49007993	27.24652790	5.30282963
Ti	18.07454203	16.86495317	5.42481105
Ti	18.20168281	27.34858255	5.53757767
O	21.82385086	17.91593355	4.00599766
O	21.85170646	28.32700863	3.94591890
O	8.66449128	12.68225718	3.98860742
O	8.49215739	23.05945153	4.02265697
O	23.75966520	12.63882985	3.99257847
O	23.62199199	23.09029523	3.96243180
O	8.57610002	20.19668092	4.77114215
O	8.53263808	30.68639376	4.61601013
O	23.76770261	20.18137661	4.73507613
O	23.81879027	30.78545045	4.50753157
O	21.97723208	14.92065817	4.93512560
O	21.90123576	25.42927980	4.96274862
O	21.84985928	11.12103914	5.72128235
O	21.98060053	21.42985777	5.96597006
O	8.66827210	16.32079946	5.73970426
O	8.64442470	26.68938557	5.92251559
O	23.88457169	16.20802442	5.95978050
O	23.87966851	26.72675168	5.90254599
O	8.58345667	13.30747628	6.42347131
O	8.57056715	23.93817046	6.37682415
O	23.83477972	13.20233501	6.38262772
O	23.86340873	23.79242130	6.36676241
O	22.01340753	18.52678115	6.39157266
O	21.93426434	29.08534022	6.38636237
O	10.32247368	17.93231983	3.97607453
O	10.29287462	28.25458208	3.93903284
O	25.79709711	17.83441109	3.91787512
O	25.76668066	28.26693571	3.95361254
O	14.27495737	17.89608638	3.95642921
O	14.11231694	28.34866632	3.93493872
O	29.46808357	17.82526688	3.93756887
O	29.42077438	28.37039175	3.92720103
O	18.11658705	17.95340934	3.85454521
O	18.05140646	28.36933508	3.95268896
O	12.47633470	12.58848243	3.93664948
O	12.25057053	23.13057074	4.02888279
O	27.48539067	12.63412164	3.96858227
O	27.57124020	23.15192406	3.91635635
O	16.04720066	12.60924345	3.95523316
O	16.20688602	23.15783433	3.96977812
O	19.89278907	12.70683607	3.92673416
O	20.19784165	23.18160170	4.00904805
O	12.41141957	20.31143566	4.67711537
O	12.35089701	30.62561215	4.85408668
O	27.61849280	20.07003590	4.86973671
O	27.50802362	30.66917332	4.77761179
O	16.22375958	20.32327883	4.75468693
O	16.22608317	30.62470314	4.66774472
O	20.06067081	20.31403193	4.80090351
O	19.99392134	30.54007288	4.83440405
O	10.49869767	15.01498694	4.60628306
O	10.52821302	25.45026447	4.76360632
O	25.84902693	14.99353873	4.74080247
O	25.69756104	25.44888273	4.72173908
O	14.22704172	15.02845859	4.89475444
O	14.31712267	25.45262860	4.75449210
O	29.55634890	14.84001820	4.86495721
O	29.58756239	25.32638513	4.83726511
O	18.08178571	14.97426905	4.71497730
O	18.12862762	25.45401946	4.74443816
O	10.52231527	11.09815461	5.88025002
O	10.46481798	21.63659328	5.81139463
O	25.68509802	11.00772854	5.90313325
O	25.76412368	21.37026341	5.84539529
O	14.24461147	11.04628489	5.73055604
O	14.36600384	21.61683001	5.92136695
O	29.56954365	11.07880266	5.66108065
O	29.43984079	21.53932826	5.75574482
O	17.97262841	11.17356598	5.81093627
O	18.18856468	21.59336409	5.91572565
O	12.39762301	16.28821912	5.78542532
O	12.48361074	26.75021809	5.91557582
O	27.65102621	16.17933971	5.86471557
O	27.63868568	26.67606144	5.81070141
O	16.18209228	16.43714368	5.57961679
O	16.24562337	26.74315281	5.95775688
O	19.99120784	16.36768983	5.74466161
O	19.96170134	26.81675896	5.90335215
O	12.20800103	13.36925484	6.48767443
O	12.40457998	23.79037979	6.49568951
O	27.63104651	13.16838077	6.43573376
O	27.49547556	23.83063581	6.40906347
O	16.07262036	13.42067504	6.25889988
O	16.25445209	23.95305015	6.39833153
O	19.85152553	13.37966035	6.40168732
O	19.90525095	23.87530503	6.51691393
O	10.68862555	18.63532513	6.29281227
O	10.30959731	29.07509459	6.31217328
O	25.69121862	18.53830680	6.29905760
O	25.67112809	28.90946991	6.30278176
O	14.10640575	18.77295146	6.33485544
O	14.22795298	29.05666355	6.28937748
O	29.59769089	18.47508745	6.43422566
O	29.38143973	28.90117337	6.34702682
O	17.96874187	18.62304243	6.33363960
O	18.11818442	29.11851844	6.30137715
H	15.67753181	14.41211899	7.85019560
H	16.56120053	15.92824950	10.98938374
H	13.67039507	18.35237904	8.73463253
O	14.46113053	16.25883700	7.45268769
O	15.75937965	14.94483717	8.68707677
C	15.10369557	16.08961597	8.55931245
C	15.07934055	16.95622542	9.69297781
C	15.82956933	16.69442031	10.82397371
C	14.25809227	18.13552918	9.62633174
N	13.48616645	19.11165773	15.52443603
N	14.96138116	22.29725562	17.34168199
N	15.39018753	21.12036041	14.62434205
N	12.89415648	20.58423761	17.98141868
C	20.49600904	23.76741964	15.98061902
C	12.76815883	24.38041067	22.41293050
C	8.33249730	16.96834104	17.34811022
C	18.10756333	23.64802076	15.58841593
C	12.93263712	23.74029443	20.14762332
C	10.70952003	17.49847724	17.58872508
C	19.37477912	25.57338207	14.85953779
C	11.84372026	25.86454884	20.69695956
C	9.69541909	15.68587916	18.84423763
C	14.60059423	19.26303599	13.30129876
C	16.79358456	22.83947281	15.76266718
C	13.35739576	22.74717522	19.11051739
C	11.81764005	18.38236961	17.25207038
C	15.33779438	20.42199344	13.45964003
C	16.46554279	21.97481809	14.67797006
C	12.60341984	21.51473780	18.92903798
C	11.96990216	19.56153939	18.04781336
C	16.45898736	20.89057067	12.65567201
C	17.15730944	21.84260173	13.40939030
C	11.41396395	21.12974772	19.67362821
C	11.04938023	19.91575738	19.10356349
C	13.83967110	18.63684461	14.27271899
C	16.15515392	22.91814764	16.96540493
C	14.52625392	23.01480523	18.43983648
C	12.53061301	18.14300085	16.07327636
C	13.18640510	17.36309324	14.00908687
C	16.45388137	24.06822878	17.84367284
C	15.40408237	24.14749473	18.69698002
C	12.40793094	17.07587874	15.15158059
H	13.28940409	16.72339892	13.09570804
H	17.31997444	24.70350116	17.52162459
H	15.31562036	24.89056780	19.51062982
H	11.73034810	16.21099995	15.29824002
H	16.70568571	20.72680365	11.57021728
H	17.96100692	22.44648753	13.04350303
H	10.91100026	21.56769320	20.50999976
H	10.09847643	19.35292839	19.30940059
H	19.45055251	26.59350768	14.36680267
H	11.26317541	26.75859689	20.42783491
H	9.75276222	14.98740701	19.65230272
H	21.35398548	23.25752038	16.40928207
H	12.87440137	24.22931997	23.52755328
H	7.32026344	17.15253769	16.94494360
H	14.74121234	20.99462669	15.40426769
H	13.67572937	20.64882189	17.30200593
C	21.78893735	25.77914773	15.20629334
H	22.65400128	25.21428650	15.55751612
H	21.78259224	26.75504633	15.75048546
H	21.94377214	25.98179832	14.11395901
C	19.20459024	21.92280653	16.95933802
H	18.68530206	21.00165202	16.58579913
H	18.74543244	22.09367045	17.97792325
H	20.20505752	21.61284965	17.13541379
C	16.96587920	25.36277012	14.17268337
H	16.32799480	25.97821332	14.80862761
H	16.41288689	24.57587216	13.70297792
H	17.29710982	26.04546706	13.34552041
C	12.21647426	16.19986589	19.03902141
H	12.75941032	17.09870139	19.35764646
H	12.85575691	15.69677339	18.27367158
H	12.22025637	15.50911410	19.90147523
C	9.20327525	18.96074544	16.16662141
H	8.18563700	18.91531890	15.79496993
H	9.89599489	19.00272895	15.34333953
H	9.39415619	19.83036512	16.73427542
C	7.29133350	15.27095848	18.87694528
H	7.56651935	14.23384073	19.04609011
H	6.42255736	15.32414009	18.25804192
H	7.09895888	15.81486954	19.82018127
C	11.90552471	25.10953479	18.33301334
H	12.70575603	25.61584296	17.81570768
H	11.02345723	25.69591690	18.22828600
H	11.68696158	24.21624923	17.72741425
C	14.18812554	22.41238380	21.94540334
H	15.21501221	22.71635132	21.86727855
H	14.13246241	21.49844079	21.25817204
H	13.87921273	22.12103198	22.99062649
C	11.42811707	26.38587934	23.11928603
H	10.46040201	26.79615681	22.79211220
H	12.00694878	27.26121197	23.37508278
H	11.16017073	25.73355566	23.97950022
C	20.54855132	24.99506106	15.34058924
C	19.25825600	23.13452978	16.14995163
C	18.14700498	24.88876163	14.94703249
C	12.22405290	24.88660786	19.76216966
C	13.28865805	23.49364992	21.50767135
C	12.10599137	25.57387327	22.06392342
C	10.83086789	16.42515141	18.51102155
C	9.42912764	17.77632119	17.04134457
C	8.48012174	15.93251895	18.26598394
H	15.96729535	17.16765897	12.89550814
H	13.53604395	19.90137058	10.65503979
C	14.74730789	18.60296873	11.95858764
C	15.61404986	17.52320618	11.91623158
C	14.12839895	18.99749542	10.72076234

Ti O H C N 0
6-31G*
****

