%chk=f00019424.chk
%mem=24GB
%nproc=12
#p b3lyp/6-31G*

title

0 1
Ti	2.81187400	0.19704000	1.10336000
Ti	0.90594400	5.44057000	1.10336000
Ti	4.71781400	5.44057000	1.10336000
Ti	0.90594400	2.47241000	1.99114000
Ti	4.71781400	2.47241000	1.99114000
Ti	2.81187400	7.71594000	1.99115000
O	2.81187400	8.81302000	0.37332000
O	0.90594400	3.56949000	0.37332000
O	4.71781400	3.56949000	0.37332000
O	0.90594400	0.60134000	1.26110000
O	4.71781400	0.60134000	1.26110000
O	2.81187400	5.84486000	1.26111000
O	2.81187400	2.06812000	1.83340000
O	0.90594400	7.31164000	1.83340000
O	4.71781400	7.31164000	1.83340000
O	0.90594400	4.34349000	2.72118000
O	4.71781400	4.34349000	2.72118000
O	2.81187400	9.58701000	2.72118000
Ti	6.62374588	0.19704000	1.10336000
Ti	21.87123776	0.19704000	1.10336000
Ti	8.52968588	5.44057000	1.10336000
Ti	23.77717776	5.44057000	1.10336000
Ti	8.52968588	2.47241000	1.99114000
Ti	23.77717776	2.47241000	1.99114000
Ti	6.62374588	7.71594000	1.99115000
Ti	21.87123776	7.71594000	1.99115000
Ti	10.43561588	0.19704000	1.10336000
Ti	25.68310776	0.19704000	1.10336000
Ti	14.24749588	0.19704000	1.10336000
Ti	29.49498776	0.19704000	1.10336000
Ti	18.05936588	0.19704000	1.10336000
Ti	12.34155588	5.44057000	1.10336000
Ti	27.58904776	5.44057000	1.10336000
Ti	16.15343588	5.44057000	1.10336000
Ti	19.96530588	5.44057000	1.10336000
Ti	12.34155588	2.47241000	1.99114000
Ti	27.58904776	2.47241000	1.99114000
Ti	16.15343588	2.47241000	1.99114000
Ti	19.96530588	2.47241000	1.99114000
Ti	10.43561588	7.71594000	1.99115000
Ti	25.68310776	7.71594000	1.99115000
Ti	14.24749588	7.71594000	1.99115000
Ti	29.49498776	7.71594000	1.99115000
Ti	18.05936588	7.71594000	1.99115000
O	6.62374588	8.81302000	0.37332000
O	21.87123776	8.81302000	0.37332000
O	8.52968588	3.56949000	0.37332000
O	23.77717776	3.56949000	0.37332000
O	8.52968588	0.60134000	1.26110000
O	23.77717776	0.60134000	1.26110000
O	6.62374588	5.84486000	1.26111000
O	21.87123776	5.84486000	1.26111000
O	6.62374588	2.06812000	1.83340000
O	21.87123776	2.06812000	1.83340000
O	8.52968588	7.31164000	1.83340000
O	23.77717776	7.31164000	1.83340000
O	8.52968588	4.34349000	2.72118000
O	23.77717776	4.34349000	2.72118000
O	6.62374588	9.58701000	2.72118000
O	21.87123776	9.58701000	2.72118000
O	10.43561588	8.81302000	0.37332000
O	25.68310776	8.81302000	0.37332000
O	14.24749588	8.81302000	0.37332000
O	29.49498776	8.81302000	0.37332000
O	18.05936588	8.81302000	0.37332000
O	12.34155588	3.56949000	0.37332000
O	27.58904776	3.56949000	0.37332000
O	16.15343588	3.56949000	0.37332000
O	19.96530588	3.56949000	0.37332000
O	12.34155588	0.60134000	1.26110000
O	27.58904776	0.60134000	1.26110000
O	16.15343588	0.60134000	1.26110000
O	19.96530588	0.60134000	1.26110000
O	10.43561588	5.84486000	1.26111000
O	25.68310776	5.84486000	1.26111000
O	14.24749588	5.84486000	1.26111000
O	29.49498776	5.84486000	1.26111000
O	18.05936588	5.84486000	1.26111000
O	10.43561588	2.06812000	1.83340000
O	25.68310776	2.06812000	1.83340000
O	14.24749588	2.06812000	1.83340000
O	29.49498776	2.06812000	1.83340000
O	18.05936588	2.06812000	1.83340000
O	12.34155588	7.31164000	1.83340000
O	27.58904776	7.31164000	1.83340000
O	16.15343588	7.31164000	1.83340000
O	19.96530588	7.31164000	1.83340000
O	12.34155588	4.34349000	2.72118000
O	27.58904776	4.34349000	2.72118000
O	16.15343588	4.34349000	2.72118000
O	19.96530588	4.34349000	2.72118000
O	10.43561588	9.58701000	2.72118000
O	25.68310776	9.58701000	2.72118000
O	14.24749588	9.58701000	2.72118000
O	29.49498776	9.58701000	2.72118000
O	18.05936588	9.58701000	2.72118000
Ti	2.81187400	10.68408607	1.10336000
Ti	2.81187400	21.17113214	1.10336000
Ti	0.90594400	15.92761607	1.10336000
Ti	0.90594400	26.41466214	1.10336000
Ti	4.71781400	15.92761607	1.10336000
Ti	4.71781400	26.41466214	1.10336000
Ti	0.90594400	12.95945607	1.99114000
Ti	0.90594400	23.44650214	1.99114000
Ti	4.71781400	12.95945607	1.99114000
Ti	4.71781400	23.44650214	1.99114000
Ti	2.81187400	18.20298607	1.99115000
Ti	2.81187400	28.69003214	1.99115000
O	2.81187400	19.30006607	0.37332000
O	2.81187400	29.78711214	0.37332000
O	0.90594400	14.05653607	0.37332000
O	0.90594400	24.54358214	0.37332000
O	4.71781400	14.05653607	0.37332000
O	4.71781400	24.54358214	0.37332000
O	0.90594400	11.08838607	1.26110000
O	0.90594400	21.57543214	1.26110000
O	4.71781400	11.08838607	1.26110000
O	4.71781400	21.57543214	1.26110000
O	2.81187400	16.33190607	1.26111000
O	2.81187400	26.81895214	1.26111000
O	2.81187400	12.55516607	1.83340000
O	2.81187400	23.04221214	1.83340000
O	0.90594400	17.79868607	1.83340000
O	0.90594400	28.28573214	1.83340000
O	4.71781400	17.79868607	1.83340000
O	4.71781400	28.28573214	1.83340000
O	0.90594400	14.83053607	2.72118000
O	0.90594400	25.31758214	2.72118000
O	4.71781400	14.83053607	2.72118000
O	4.71781400	25.31758214	2.72118000
O	2.81187400	20.07405607	2.72118000
O	2.81187400	30.56110214	2.72118000
Ti	6.62374588	10.68408607	1.10336000
Ti	6.62374588	21.17113214	1.10336000
Ti	21.87123776	10.68408607	1.10336000
Ti	21.87123776	21.17113214	1.10336000
Ti	8.52968588	15.92761607	1.10336000
Ti	8.52968588	26.41466214	1.10336000
Ti	23.77717776	15.92761607	1.10336000
Ti	23.77717776	26.41466214	1.10336000
Ti	8.52968588	12.95945607	1.99114000
Ti	8.52968588	23.44650214	1.99114000
Ti	23.77717776	12.95945607	1.99114000
Ti	23.77717776	23.44650214	1.99114000
Ti	6.62374588	18.20298607	1.99115000
Ti	6.62374588	28.69003214	1.99115000
Ti	21.87123776	18.20298607	1.99115000
Ti	21.87123776	28.69003214	1.99115000
Ti	10.43561588	10.68408607	1.10336000
Ti	10.43561588	21.17113214	1.10336000
Ti	25.68310776	10.68408607	1.10336000
Ti	25.68310776	21.17113214	1.10336000
Ti	14.24749588	10.68408607	1.10336000
Ti	14.24749588	21.17113214	1.10336000
Ti	29.49498776	10.68408607	1.10336000
Ti	29.49498776	21.17113214	1.10336000
Ti	18.05936588	10.68408607	1.10336000
Ti	18.05936588	21.17113214	1.10336000
Ti	12.34155588	15.92761607	1.10336000
Ti	12.34155588	26.41466214	1.10336000
Ti	27.58904776	15.92761607	1.10336000
Ti	27.58904776	26.41466214	1.10336000
Ti	16.15343588	15.92761607	1.10336000
Ti	16.15343588	26.41466214	1.10336000
Ti	19.96530588	15.92761607	1.10336000
Ti	19.96530588	26.41466214	1.10336000
Ti	12.34155588	12.95945607	1.99114000
Ti	12.34155588	23.44650214	1.99114000
Ti	27.58904776	12.95945607	1.99114000
Ti	27.58904776	23.44650214	1.99114000
Ti	16.15343588	12.95945607	1.99114000
Ti	16.15343588	23.44650214	1.99114000
Ti	19.96530588	12.95945607	1.99114000
Ti	19.96530588	23.44650214	1.99114000
Ti	10.43561588	18.20298607	1.99115000
Ti	10.43561588	28.69003214	1.99115000
Ti	25.68310776	18.20298607	1.99115000
Ti	25.68310776	28.69003214	1.99115000
Ti	14.24749588	18.20298607	1.99115000
Ti	14.24749588	28.69003214	1.99115000
Ti	29.49498776	18.20298607	1.99115000
Ti	29.49498776	28.69003214	1.99115000
Ti	18.05936588	18.20298607	1.99115000
Ti	18.05936588	28.69003214	1.99115000
O	6.62374588	19.30006607	0.37332000
O	6.62374588	29.78711214	0.37332000
O	21.87123776	19.30006607	0.37332000
O	21.87123776	29.78711214	0.37332000
O	8.52968588	14.05653607	0.37332000
O	8.52968588	24.54358214	0.37332000
O	23.77717776	14.05653607	0.37332000
O	23.77717776	24.54358214	0.37332000
O	8.52968588	11.08838607	1.26110000
O	8.52968588	21.57543214	1.26110000
O	23.77717776	11.08838607	1.26110000
O	23.77717776	21.57543214	1.26110000
O	6.62374588	16.33190607	1.26111000
O	6.62374588	26.81895214	1.26111000
O	21.87123776	16.33190607	1.26111000
O	21.87123776	26.81895214	1.26111000
O	6.62374588	12.55516607	1.83340000
O	6.62374588	23.04221214	1.83340000
O	21.87123776	12.55516607	1.83340000
O	21.87123776	23.04221214	1.83340000
O	8.52968588	17.79868607	1.83340000
O	8.52968588	28.28573214	1.83340000
O	23.77717776	17.79868607	1.83340000
O	23.77717776	28.28573214	1.83340000
O	8.52968588	14.83053607	2.72118000
O	8.52968588	25.31758214	2.72118000
O	23.77717776	14.83053607	2.72118000
O	23.77717776	25.31758214	2.72118000
O	6.62374588	20.07405607	2.72118000
O	6.62374588	30.56110214	2.72118000
O	21.87123776	20.07405607	2.72118000
O	21.87123776	30.56110214	2.72118000
O	10.43561588	19.30006607	0.37332000
O	10.43561588	29.78711214	0.37332000
O	25.68310776	19.30006607	0.37332000
O	25.68310776	29.78711214	0.37332000
O	14.24749588	19.30006607	0.37332000
O	14.24749588	29.78711214	0.37332000
O	29.49498776	19.30006607	0.37332000
O	29.49498776	29.78711214	0.37332000
O	18.05936588	19.30006607	0.37332000
O	18.05936588	29.78711214	0.37332000
O	12.34155588	14.05653607	0.37332000
O	12.34155588	24.54358214	0.37332000
O	27.58904776	14.05653607	0.37332000
O	27.58904776	24.54358214	0.37332000
O	16.15343588	14.05653607	0.37332000
O	16.15343588	24.54358214	0.37332000
O	19.96530588	14.05653607	0.37332000
O	19.96530588	24.54358214	0.37332000
O	12.34155588	11.08838607	1.26110000
O	12.34155588	21.57543214	1.26110000
O	27.58904776	11.08838607	1.26110000
O	27.58904776	21.57543214	1.26110000
O	16.15343588	11.08838607	1.26110000
O	16.15343588	21.57543214	1.26110000
O	19.96530588	11.08838607	1.26110000
O	19.96530588	21.57543214	1.26110000
O	10.43561588	16.33190607	1.26111000
O	10.43561588	26.81895214	1.26111000
O	25.68310776	16.33190607	1.26111000
O	25.68310776	26.81895214	1.26111000
O	14.24749588	16.33190607	1.26111000
O	14.24749588	26.81895214	1.26111000
O	29.49498776	16.33190607	1.26111000
O	29.49498776	26.81895214	1.26111000
O	18.05936588	16.33190607	1.26111000
O	18.05936588	26.81895214	1.26111000
O	10.43561588	12.55516607	1.83340000
O	10.43561588	23.04221214	1.83340000
O	25.68310776	12.55516607	1.83340000
O	25.68310776	23.04221214	1.83340000
O	14.24749588	12.55516607	1.83340000
O	14.24749588	23.04221214	1.83340000
O	29.49498776	12.55516607	1.83340000
O	29.49498776	23.04221214	1.83340000
O	18.05936588	12.55516607	1.83340000
O	18.05936588	23.04221214	1.83340000
O	12.34155588	17.79868607	1.83340000
O	12.34155588	28.28573214	1.83340000
O	27.58904776	17.79868607	1.83340000
O	27.58904776	28.28573214	1.83340000
O	16.15343588	17.79868607	1.83340000
O	16.15343588	28.28573214	1.83340000
O	19.96530588	17.79868607	1.83340000
O	19.96530588	28.28573214	1.83340000
O	12.34155588	14.83053607	2.72118000
O	12.34155588	25.31758214	2.72118000
O	27.58904776	14.83053607	2.72118000
O	27.58904776	25.31758214	2.72118000
O	16.15343588	14.83053607	2.72118000
O	16.15343588	25.31758214	2.72118000
O	19.96530588	14.83053607	2.72118000
O	19.96530588	25.31758214	2.72118000
O	10.43561588	20.07405607	2.72118000
O	10.43561588	30.56110214	2.72118000
O	25.68310776	20.07405607	2.72118000
O	25.68310776	30.56110214	2.72118000
O	14.24749588	20.07405607	2.72118000
O	14.24749588	30.56110214	2.72118000
O	29.49498776	20.07405607	2.72118000
O	29.49498776	30.56110214	2.72118000
O	18.05936588	20.07405607	2.72118000
O	18.05936588	30.56110214	2.72118000
Ti	6.78575688	9.28940824	4.77415821
Ti	6.64317187	6.37484319	5.48660791
Ti	2.91857843	9.16228189	4.85431445
Ti	0.94507030	3.92482918	4.69800339
Ti	4.68219356	3.94573429	4.76360640
Ti	0.88952036	1.00929411	5.51533917
Ti	4.77548927	1.06909009	5.56624289
Ti	2.75106148	6.22699148	5.44422553
O	6.65887157	7.43523238	3.92527842
O	6.58554707	4.49084692	4.75959787
O	6.67817829	0.61999573	5.69699303
O	6.62318287	8.09985275	6.33189266
O	2.84099834	7.35682445	3.89750795
O	1.00067444	2.07077132	3.99003160
O	4.59666669	1.95224221	3.96149033
O	1.03572786	9.61242039	4.70775418
O	4.82537806	9.54179453	4.66048719
O	2.85010930	4.42099321	4.81939896
O	2.78798931	0.52171272	5.77963761
O	0.89688226	5.82894051	5.73784450
O	4.72369306	5.80493141	5.67842525
O	0.83395664	2.76119695	6.30180315
O	4.81147658	2.90996342	6.38621775
O	2.93858771	7.93518948	6.42498943
Ti	21.88945201	9.16058138	4.71470825
Ti	8.54460341	4.08358578	4.87385792
Ti	23.78546186	3.96635649	4.77538014
Ti	8.56563659	1.14025873	5.51606283
Ti	23.68176440	1.00448379	5.46131099
Ti	21.90306293	6.26295060	5.52100281
Ti	10.43259685	9.25351149	4.79771440
Ti	25.68608822	9.19829155	4.77073972
Ti	14.34818602	9.25992893	4.63445493
Ti	29.42561411	9.26191121	4.66596587
Ti	18.11823772	9.26667700	4.81097312
Ti	12.29373104	3.99767174	4.76642552
Ti	27.60460838	4.09008997	4.82848943
Ti	16.16215067	4.08858403	4.73637842
Ti	19.99259011	3.97700674	4.71695682
Ti	12.46005594	1.09922679	5.60789781
Ti	27.45402100	1.17781743	5.60780011
Ti	16.15546037	1.23137316	5.67229696
Ti	19.96583817	1.07876379	5.54014477
Ti	10.44259233	6.35360219	5.65036295
Ti	25.54485779	6.25540821	5.53017324
Ti	14.30436385	6.36869611	5.37237827
Ti	29.46699579	6.36762665	5.53104814
Ti	18.07795344	6.36308370	5.48892465
O	21.94459979	7.19386519	3.91846641
O	8.44360981	2.13481806	3.99907337
O	23.61471100	2.00253245	3.95345276
O	8.61729995	9.84016326	4.73201955
O	23.73026905	9.74451519	4.63150807
O	21.87469048	4.35063226	4.80118689
O	21.81241797	0.47084255	6.00002026
O	8.47038277	5.87846320	5.91509586
O	23.76811246	5.69256194	5.98555448
O	8.39211466	2.87075057	6.33351404
O	23.70981209	2.86403723	6.34605462
O	21.79303689	7.96309808	6.33916493
O	10.44483032	7.34010929	4.02144324
O	25.58913726	7.26024087	3.94669101
O	14.31003378	7.33193260	3.84541587
O	29.68317248	7.37493458	3.89679566
O	18.08377123	7.40868604	4.00335939
O	12.40833487	2.17649218	3.99095806
O	27.48999834	2.23977418	4.02880734
O	15.96582516	2.18315277	3.99323101
O	19.88170154	2.09163998	3.91831833
O	12.37702653	9.65476652	4.89079965
O	27.56289057	9.63091406	4.98313392
O	16.20456537	9.77481863	4.75324399
O	20.01001732	9.63863886	4.81719481
O	10.42666272	4.48687431	4.86633266
O	25.61920497	4.41601844	4.57834339
O	14.23021083	4.43029030	4.76165195
O	29.49251038	4.42355773	4.83551366
O	18.07845897	4.52690974	4.62182398
O	10.44439846	0.57812668	5.89940983
O	25.61129026	0.52680754	5.93912475
O	14.22129765	0.89203561	6.21470999
O	29.42695108	0.73155602	5.68381237
O	18.08738253	0.59660955	5.80051925
O	12.35059609	5.92430200	5.71102932
O	27.60025112	5.85719402	5.71743284
O	16.15674125	5.90336663	5.68067351
O	20.02686976	5.83585832	5.73834601
O	12.27386766	2.83724425	6.33840758
O	27.53914729	3.01745620	6.45693651
O	16.19485146	2.99506183	6.41198895
O	19.95990580	2.72223100	6.39472016
O	10.35388623	8.23018725	6.41150448
O	25.65571084	8.08931729	6.33727891
O	14.34282923	8.00520068	6.31737317
O	29.40825342	8.07837816	6.30842138
O	18.08213777	8.06884451	6.45336717
Ti	6.54174790	19.82739951	4.69657957
Ti	6.78069163	30.15730502	4.67551664
Ti	6.61358632	16.83238423	5.56883591
Ti	6.68072017	27.27690653	5.51957793
Ti	2.73838655	19.85131076	4.73395450
Ti	2.85392913	30.31355609	4.59713652
Ti	0.92928404	14.28335093	4.65779588
Ti	0.85882785	24.95388388	4.67838949
Ti	4.71418237	14.58775134	4.84865550
Ti	4.71549669	24.97710419	4.75307803
Ti	0.92483289	11.39633255	5.50759361
Ti	0.83073367	22.09552162	5.56827885
Ti	4.73759679	11.58760284	5.46198330
Ti	4.69851777	22.04256836	5.51956459
Ti	2.79119535	16.84524514	5.59148670
Ti	2.77382732	27.41102802	5.49842610
O	6.53773099	17.96349532	4.00121765
O	6.72620425	28.27831837	3.91025898
O	6.60387736	14.82728946	4.96827753
O	6.73423091	25.36890240	4.77484657
O	6.57097463	11.08273299	5.51827077
O	6.64100950	21.60101996	5.77702299
O	6.68562665	18.52374837	6.37788486
O	6.70282477	29.03341954	6.27635559
O	2.89467090	17.81348869	3.98517841
O	2.82911436	28.40648770	4.01022602
O	0.98723031	12.47798693	3.95395599
O	0.83040606	23.10986614	3.96499704
O	4.60257657	12.63419295	3.99456937
O	4.50925910	23.14951088	3.99416799
O	0.79861883	20.18317285	4.68372071
O	0.90162369	30.58529191	4.70203430
O	4.69112632	20.17037396	4.74641455
O	4.81306458	30.68174540	4.80420796
O	2.70229201	15.02882744	4.84912717
O	2.80815401	25.33766484	4.77708159
O	2.83291138	10.94466640	5.78534575
O	2.74744763	21.51283323	5.85296110
O	1.01971742	16.78097603	6.13008935
O	0.83629586	26.71244932	5.77771611
O	4.59795324	16.38201292	5.85910282
O	4.71301611	26.88388987	5.69176113
O	1.06429904	13.22072314	6.30435274
O	0.71770033	23.80703446	6.37851059
O	4.60520636	13.34368119	6.40278196
O	4.83166399	23.82339560	6.35571327
O	2.88519520	18.67231429	6.29062077
O	2.78271070	29.12824371	6.36061335
Ti	21.75479059	19.67285423	4.78381112
Ti	21.79304159	30.24384892	4.84812495
Ti	8.49318572	14.51537501	4.74877746
Ti	8.59291951	24.87693146	4.77762443
Ti	23.82400781	14.48039859	4.86219748
Ti	23.77899064	24.98989917	4.87615781
Ti	8.48860360	11.60596087	5.49769775
Ti	8.48917503	22.00361906	5.47055619
Ti	23.77874250	11.51239607	5.45893600
Ti	23.76432821	22.06545070	5.54729594
Ti	21.80613403	16.78051908	5.52225669
Ti	21.72736553	27.27860199	5.43196370
Ti	10.54366867	19.73533740	4.71480143
Ti	10.54506542	30.23434953	4.87826427
Ti	25.61167835	19.77806094	4.82361044
Ti	25.66927380	30.19747791	4.82858959
Ti	14.24844508	19.65944834	4.81506588
Ti	14.33061583	29.98586306	4.61646863
Ti	29.39825396	19.79694913	4.77149354
Ti	29.48352358	30.28704361	4.77929555
Ti	18.06541613	19.68312721	4.71546325
Ti	18.02861161	30.28136481	4.76170749
Ti	12.45690667	14.55825672	4.66315543
Ti	12.42785971	24.98681560	4.72921280
Ti	27.75935116	14.56561297	4.68124518
Ti	27.59361920	25.00073395	4.83432382
Ti	16.22878149	14.58591448	4.72688336
Ti	16.27648316	24.94159854	4.82069797
Ti	20.01562846	14.41498118	4.90436369
Ti	19.96331622	24.89648012	4.68861746
Ti	12.30432881	11.59125027	5.44910770
Ti	12.28447966	22.05360749	5.42592087
Ti	27.55600155	11.58717093	5.55476401
Ti	27.53571461	22.12662250	5.60619386
Ti	16.25045445	11.59477729	5.41068610
Ti	16.15218405	21.97005692	5.49357857
Ti	19.99621775	11.50652966	5.53113351
Ti	19.86681284	22.01044842	5.55668169
Ti	10.37429178	16.73351151	5.50239734
Ti	10.56058859	27.33707291	5.43647918
Ti	25.74655820	16.81598248	5.38581693
Ti	25.64306446	27.24017773	5.69184794
Ti	14.35207874	16.76808035	5.73665423
Ti	14.34047767	27.21003620	5.61308149
Ti	29.73494617	16.89885824	5.53616888
Ti	29.53117557	27.32428121	5.52818964
Ti	18.08656459	16.81057701	5.49632723
Ti	18.03032989	27.35004940	5.57716231
O	21.74644509	17.81679680	3.95101057
O	21.88749032	28.34047039	3.87035395
O	8.62698823	12.69460366	3.95462795
O	8.41195566	23.11375944	3.94299761
O	23.91055638	12.56623000	3.97748253
O	23.95525556	23.17001563	3.99522036
O	8.56690832	20.10894139	4.78950471
O	8.68373038	30.74128752	4.82539972
O	23.72068775	20.02651563	4.98121803
O	23.71775197	30.49853804	4.93639214
O	21.90270658	14.82871623	4.87385969
O	21.88172243	25.40846318	4.63816278
O	21.84763129	11.06730833	5.70875938
O	21.84783675	21.63476781	5.65467232
O	8.46418753	16.38750166	5.63806505
O	8.60266046	26.85103370	5.78522860
O	23.80812506	16.48219776	5.55614429
O	23.58495602	26.69982886	5.91773310
O	8.38145990	13.39512224	6.40444855
O	8.59195852	23.69266703	6.36550349
O	23.88672309	13.22659663	6.29525361
O	23.74562233	23.72873799	6.44188509
O	21.89612901	18.49327342	6.34268768
O	21.82886980	29.05539157	6.44656347
O	10.34674883	17.79009573	3.93007149
O	10.66658544	28.43203322	3.96015342
O	25.69330861	18.02290017	3.96029354
O	25.78308685	28.19451539	4.01569294
O	14.17256205	17.84844455	3.95531867
O	14.32318133	28.13571801	3.81713073
O	29.79130053	17.85016023	3.89564029
O	29.62825772	28.38581813	3.92401942
O	18.14290821	17.78841133	3.97459231
O	17.99942573	28.26195795	3.94650876
O	12.51354944	12.65735709	3.90410453
O	12.37361002	23.02824714	3.91255022
O	27.61588971	12.53205566	3.96714069
O	27.51868985	23.20018900	3.97152184
O	16.21198636	12.75899096	3.92915449
O	16.21881717	23.04942916	3.91219172
O	19.83709610	12.54174281	4.01259179
O	19.82878561	23.04044290	3.91822303
O	12.36365392	20.22681012	4.80856560
O	12.55753856	30.64479059	4.92423962
O	27.49348637	20.29009073	4.72106882
O	27.62672651	30.75918666	4.87906390
O	16.09821136	20.16236247	4.68017157
O	16.08919593	30.82797702	4.88219263
O	19.91305847	20.19787150	4.77372522
O	19.88685135	30.76716749	4.57897840
O	10.52087430	14.86074040	4.88937814
O	10.49755670	25.37662345	4.84282395
O	25.74665109	14.94254503	4.76930290
O	25.72987872	25.33077601	4.93466973
O	14.34185319	14.93232574	4.81368273
O	14.29886257	25.38790571	4.69579866
O	29.72926278	15.12550422	4.82566759
O	29.45002982	25.42188446	4.70683461
O	18.06596396	14.91405515	4.76952062
O	18.11776340	25.32641697	4.97319143
O	10.38220160	11.16833036	5.73035682
O	10.45732362	21.60891177	5.66908531
O	25.64674449	10.91433173	5.77046478
O	25.63903682	21.54732673	5.82060593
O	14.33351831	11.16451426	5.80216723
O	14.29483908	21.48255398	5.68484283
O	29.46538486	11.13530667	5.48902126
O	29.46587158	21.53472892	5.75265110
O	18.09802255	11.03873592	5.68099446
O	17.99171234	21.45160122	5.99422336
O	12.31392745	16.42499966	5.69046324
O	12.36841134	26.72440928	5.91626903
O	27.67958691	16.34678145	5.53645614
O	27.55850212	26.99531684	5.83449212
O	16.25658018	16.30781388	5.72545774
O	16.18779206	26.80308430	5.96104000
O	19.94799508	16.17650453	5.85638607
O	19.97450487	26.63713855	5.89110415
O	12.33498927	13.44649964	6.32146940
O	12.19899135	23.78952503	6.35866288
O	27.67794912	13.45745350	6.32303301
O	27.76982379	23.86422794	6.33978498
O	16.26083774	13.40161033	6.35785618
O	16.06927483	23.66682220	6.31984639
O	19.99274837	13.22390336	6.42804630
O	20.06236566	23.82492675	6.37930802
O	10.47676444	18.49231398	6.33121355
O	10.43543966	29.00059159	6.34710466
O	25.80799284	18.61745416	6.34823561
O	25.61082863	29.03030247	6.41585533
O	14.27095212	18.63012338	6.38212285
O	14.40656343	28.96823797	6.32501292
O	29.31359947	18.62228858	6.39958706
O	29.53721355	29.02190927	6.36738299
O	18.13700708	18.53095204	6.48709376
O	18.17117737	29.12521070	6.27508507
H	13.71297380	13.83162961	7.75328835
H	13.58009644	14.59541432	11.20109379
H	15.07085272	18.09892094	8.94895321
O	14.28447205	16.04928354	7.48572254
O	13.74784517	14.25320556	8.66007048
C	14.05313791	15.52203491	8.61119891
C	14.11096925	16.24642575	9.86142516
C	13.81999225	15.65455987	11.11732828
C	14.62275186	17.60621007	9.85402210
N	12.98281641	19.44861524	15.41886006
N	15.70818046	21.92728839	17.17323474
N	15.85545442	20.09660199	14.80739870
N	12.92166437	21.27928534	17.58532397
C	21.42864895	20.38664285	16.32319294
C	13.91062075	25.01769405	22.07648364
C	7.09201538	20.14221539	16.43766891
C	19.24410198	21.36146936	15.84609265
C	14.09070375	24.08764426	19.80683468
C	9.48394269	19.89623743	17.01139701
C	21.20162573	22.43054779	15.02875537
C	13.35033765	26.36328683	20.11662667
C	7.73790021	19.05963343	18.48888781
C	14.41861241	18.57431921	13.54506403
C	17.74519727	21.26570505	15.87869026
C	14.29410302	22.92751411	18.87366266
C	10.96851727	20.10129931	16.65852435
C	15.67984830	19.14584161	13.82306839
C	17.16911444	20.43323290	14.89699589
C	13.08935177	22.33928302	18.46935217
C	11.60350971	21.03704230	17.48833529
C	16.90852923	19.00924120	13.14970055
C	17.88018685	19.73165134	13.88318481
C	11.82979021	22.64258288	19.01741777
C	10.86579954	21.91284190	18.33101192
C	13.24151814	18.61119203	14.32362395
C	17.11923187	21.94945154	16.91024581
C	15.58646780	22.67369769	18.31478447
C	11.60078493	19.29134037	15.73119614
C	12.07914232	17.71714965	14.16382902
C	17.79229937	22.78045755	17.86862482
C	16.83314579	23.30722194	18.66189478
C	11.06556653	18.13352046	15.01456837
H	11.97647399	16.90806581	13.42768248
H	18.80429792	23.17110621	17.64369907
H	16.95155925	24.01348561	19.45099842
H	10.08789487	17.65547805	15.24571200
H	17.14414356	18.35662350	12.28930092
H	18.91763967	19.79446087	13.63388839
H	11.67856974	23.51734613	19.71056844
H	9.78727549	21.94027219	18.47868967
H	21.69581922	23.30108737	14.61508520
H	13.07419032	27.31200379	19.72816854
H	7.47800117	18.51989987	19.40021852
H	21.98187584	19.61520456	16.85145446
H	13.99275601	24.86297080	23.15621728
H	6.34202316	20.52571771	15.77093466
H	15.07701302	20.27785552	15.41742691
H	13.66290822	20.82968580	17.05681121
C	23.46502876	21.43702985	15.33048875
H	23.94252315	20.66728115	15.95169831
H	23.92254136	22.49167005	15.51013688
H	23.71685146	21.18740447	14.31858546
C	19.17508053	19.19981281	17.03746343
H	19.70620017	18.45492483	17.66355962
H	18.58860986	18.63495309	16.27821465
H	18.37865415	19.68018557	17.56465097
C	19.11725270	23.69898453	14.80585670
H	19.39291817	24.57333531	15.39198246
H	17.97259870	23.69068093	14.81697115
H	19.33216329	23.88646131	13.74580574
C	10.04855348	18.74954067	19.18458665
H	10.38736664	19.53758566	19.87839268
H	10.95874124	18.28124587	18.71919391
H	9.59523503	17.99002047	19.74359390
C	8.86761698	21.11927055	14.92952093
H	9.68172065	21.80892401	15.20194843
H	8.04689640	21.68160268	14.48759147
H	9.35261730	20.40103197	14.24119894
C	5.32545886	19.14097857	17.83045310
H	4.60241481	19.79646578	17.30930637
H	5.08855470	19.25800892	18.88380663
H	5.04520665	18.09787674	17.54370806
C	13.32409782	25.51109288	17.79499444
H	12.53532225	24.87157773	17.42021160
H	14.23600345	25.27209049	17.19326456
H	13.01983698	26.60822081	17.72223114
C	14.76277510	22.65980883	21.82280420
H	15.81951256	22.66415432	22.06588908
H	14.56272252	21.88917132	21.08863080
H	14.12085162	22.42693112	22.76208778
C	13.45433380	27.58144047	22.27245018
H	14.38661625	27.66807826	22.90325973
H	12.64059863	27.73847468	22.98927741
H	13.32476088	28.38843126	21.51321183
C	21.99676590	21.42946388	15.54574407
C	20.03738480	20.35916448	16.46175786
C	19.83474194	22.48471872	15.25888115
C	13.56346294	25.26038714	19.25768499
C	14.21034330	23.97170535	21.20402609
C	13.52605922	26.26402560	21.52620222
C	9.07863180	19.24063308	18.18689631
C	8.46295826	20.37135704	16.17101961
C	6.70200151	19.50132299	17.58281231
H	13.83019310	15.87865471	13.27343738
H	15.24383772	19.17947518	11.06696727
C	14.26273158	17.72580642	12.30149326
C	13.87154476	16.42869628	12.30608253
C	14.78329406	18.22116272	11.09606806

Ti O H C N 0
6-31G*
****

