%chk=f00018277.chk
%mem=24GB
%nproc=12
#p b3lyp/6-31G*

title

0 1
Ti	2.81187400	0.19704000	1.10336000
Ti	0.90594400	5.44057000	1.10336000
Ti	4.71781400	5.44057000	1.10336000
Ti	0.90594400	2.47241000	1.99114000
Ti	4.71781400	2.47241000	1.99114000
Ti	2.81187400	7.71594000	1.99115000
O	2.81187400	8.81302000	0.37332000
O	0.90594400	3.56949000	0.37332000
O	4.71781400	3.56949000	0.37332000
O	0.90594400	0.60134000	1.26110000
O	4.71781400	0.60134000	1.26110000
O	2.81187400	5.84486000	1.26111000
O	2.81187400	2.06812000	1.83340000
O	0.90594400	7.31164000	1.83340000
O	4.71781400	7.31164000	1.83340000
O	0.90594400	4.34349000	2.72118000
O	4.71781400	4.34349000	2.72118000
O	2.81187400	9.58701000	2.72118000
Ti	6.62374588	0.19704000	1.10336000
Ti	21.87123776	0.19704000	1.10336000
Ti	8.52968588	5.44057000	1.10336000
Ti	23.77717776	5.44057000	1.10336000
Ti	8.52968588	2.47241000	1.99114000
Ti	23.77717776	2.47241000	1.99114000
Ti	6.62374588	7.71594000	1.99115000
Ti	21.87123776	7.71594000	1.99115000
Ti	10.43561588	0.19704000	1.10336000
Ti	25.68310776	0.19704000	1.10336000
Ti	14.24749588	0.19704000	1.10336000
Ti	29.49498776	0.19704000	1.10336000
Ti	18.05936588	0.19704000	1.10336000
Ti	12.34155588	5.44057000	1.10336000
Ti	27.58904776	5.44057000	1.10336000
Ti	16.15343588	5.44057000	1.10336000
Ti	19.96530588	5.44057000	1.10336000
Ti	12.34155588	2.47241000	1.99114000
Ti	27.58904776	2.47241000	1.99114000
Ti	16.15343588	2.47241000	1.99114000
Ti	19.96530588	2.47241000	1.99114000
Ti	10.43561588	7.71594000	1.99115000
Ti	25.68310776	7.71594000	1.99115000
Ti	14.24749588	7.71594000	1.99115000
Ti	29.49498776	7.71594000	1.99115000
Ti	18.05936588	7.71594000	1.99115000
O	6.62374588	8.81302000	0.37332000
O	21.87123776	8.81302000	0.37332000
O	8.52968588	3.56949000	0.37332000
O	23.77717776	3.56949000	0.37332000
O	8.52968588	0.60134000	1.26110000
O	23.77717776	0.60134000	1.26110000
O	6.62374588	5.84486000	1.26111000
O	21.87123776	5.84486000	1.26111000
O	6.62374588	2.06812000	1.83340000
O	21.87123776	2.06812000	1.83340000
O	8.52968588	7.31164000	1.83340000
O	23.77717776	7.31164000	1.83340000
O	8.52968588	4.34349000	2.72118000
O	23.77717776	4.34349000	2.72118000
O	6.62374588	9.58701000	2.72118000
O	21.87123776	9.58701000	2.72118000
O	10.43561588	8.81302000	0.37332000
O	25.68310776	8.81302000	0.37332000
O	14.24749588	8.81302000	0.37332000
O	29.49498776	8.81302000	0.37332000
O	18.05936588	8.81302000	0.37332000
O	12.34155588	3.56949000	0.37332000
O	27.58904776	3.56949000	0.37332000
O	16.15343588	3.56949000	0.37332000
O	19.96530588	3.56949000	0.37332000
O	12.34155588	0.60134000	1.26110000
O	27.58904776	0.60134000	1.26110000
O	16.15343588	0.60134000	1.26110000
O	19.96530588	0.60134000	1.26110000
O	10.43561588	5.84486000	1.26111000
O	25.68310776	5.84486000	1.26111000
O	14.24749588	5.84486000	1.26111000
O	29.49498776	5.84486000	1.26111000
O	18.05936588	5.84486000	1.26111000
O	10.43561588	2.06812000	1.83340000
O	25.68310776	2.06812000	1.83340000
O	14.24749588	2.06812000	1.83340000
O	29.49498776	2.06812000	1.83340000
O	18.05936588	2.06812000	1.83340000
O	12.34155588	7.31164000	1.83340000
O	27.58904776	7.31164000	1.83340000
O	16.15343588	7.31164000	1.83340000
O	19.96530588	7.31164000	1.83340000
O	12.34155588	4.34349000	2.72118000
O	27.58904776	4.34349000	2.72118000
O	16.15343588	4.34349000	2.72118000
O	19.96530588	4.34349000	2.72118000
O	10.43561588	9.58701000	2.72118000
O	25.68310776	9.58701000	2.72118000
O	14.24749588	9.58701000	2.72118000
O	29.49498776	9.58701000	2.72118000
O	18.05936588	9.58701000	2.72118000
Ti	2.81187400	10.68408607	1.10336000
Ti	2.81187400	21.17113214	1.10336000
Ti	0.90594400	15.92761607	1.10336000
Ti	0.90594400	26.41466214	1.10336000
Ti	4.71781400	15.92761607	1.10336000
Ti	4.71781400	26.41466214	1.10336000
Ti	0.90594400	12.95945607	1.99114000
Ti	0.90594400	23.44650214	1.99114000
Ti	4.71781400	12.95945607	1.99114000
Ti	4.71781400	23.44650214	1.99114000
Ti	2.81187400	18.20298607	1.99115000
Ti	2.81187400	28.69003214	1.99115000
O	2.81187400	19.30006607	0.37332000
O	2.81187400	29.78711214	0.37332000
O	0.90594400	14.05653607	0.37332000
O	0.90594400	24.54358214	0.37332000
O	4.71781400	14.05653607	0.37332000
O	4.71781400	24.54358214	0.37332000
O	0.90594400	11.08838607	1.26110000
O	0.90594400	21.57543214	1.26110000
O	4.71781400	11.08838607	1.26110000
O	4.71781400	21.57543214	1.26110000
O	2.81187400	16.33190607	1.26111000
O	2.81187400	26.81895214	1.26111000
O	2.81187400	12.55516607	1.83340000
O	2.81187400	23.04221214	1.83340000
O	0.90594400	17.79868607	1.83340000
O	0.90594400	28.28573214	1.83340000
O	4.71781400	17.79868607	1.83340000
O	4.71781400	28.28573214	1.83340000
O	0.90594400	14.83053607	2.72118000
O	0.90594400	25.31758214	2.72118000
O	4.71781400	14.83053607	2.72118000
O	4.71781400	25.31758214	2.72118000
O	2.81187400	20.07405607	2.72118000
O	2.81187400	30.56110214	2.72118000
Ti	6.62374588	10.68408607	1.10336000
Ti	6.62374588	21.17113214	1.10336000
Ti	21.87123776	10.68408607	1.10336000
Ti	21.87123776	21.17113214	1.10336000
Ti	8.52968588	15.92761607	1.10336000
Ti	8.52968588	26.41466214	1.10336000
Ti	23.77717776	15.92761607	1.10336000
Ti	23.77717776	26.41466214	1.10336000
Ti	8.52968588	12.95945607	1.99114000
Ti	8.52968588	23.44650214	1.99114000
Ti	23.77717776	12.95945607	1.99114000
Ti	23.77717776	23.44650214	1.99114000
Ti	6.62374588	18.20298607	1.99115000
Ti	6.62374588	28.69003214	1.99115000
Ti	21.87123776	18.20298607	1.99115000
Ti	21.87123776	28.69003214	1.99115000
Ti	10.43561588	10.68408607	1.10336000
Ti	10.43561588	21.17113214	1.10336000
Ti	25.68310776	10.68408607	1.10336000
Ti	25.68310776	21.17113214	1.10336000
Ti	14.24749588	10.68408607	1.10336000
Ti	14.24749588	21.17113214	1.10336000
Ti	29.49498776	10.68408607	1.10336000
Ti	29.49498776	21.17113214	1.10336000
Ti	18.05936588	10.68408607	1.10336000
Ti	18.05936588	21.17113214	1.10336000
Ti	12.34155588	15.92761607	1.10336000
Ti	12.34155588	26.41466214	1.10336000
Ti	27.58904776	15.92761607	1.10336000
Ti	27.58904776	26.41466214	1.10336000
Ti	16.15343588	15.92761607	1.10336000
Ti	16.15343588	26.41466214	1.10336000
Ti	19.96530588	15.92761607	1.10336000
Ti	19.96530588	26.41466214	1.10336000
Ti	12.34155588	12.95945607	1.99114000
Ti	12.34155588	23.44650214	1.99114000
Ti	27.58904776	12.95945607	1.99114000
Ti	27.58904776	23.44650214	1.99114000
Ti	16.15343588	12.95945607	1.99114000
Ti	16.15343588	23.44650214	1.99114000
Ti	19.96530588	12.95945607	1.99114000
Ti	19.96530588	23.44650214	1.99114000
Ti	10.43561588	18.20298607	1.99115000
Ti	10.43561588	28.69003214	1.99115000
Ti	25.68310776	18.20298607	1.99115000
Ti	25.68310776	28.69003214	1.99115000
Ti	14.24749588	18.20298607	1.99115000
Ti	14.24749588	28.69003214	1.99115000
Ti	29.49498776	18.20298607	1.99115000
Ti	29.49498776	28.69003214	1.99115000
Ti	18.05936588	18.20298607	1.99115000
Ti	18.05936588	28.69003214	1.99115000
O	6.62374588	19.30006607	0.37332000
O	6.62374588	29.78711214	0.37332000
O	21.87123776	19.30006607	0.37332000
O	21.87123776	29.78711214	0.37332000
O	8.52968588	14.05653607	0.37332000
O	8.52968588	24.54358214	0.37332000
O	23.77717776	14.05653607	0.37332000
O	23.77717776	24.54358214	0.37332000
O	8.52968588	11.08838607	1.26110000
O	8.52968588	21.57543214	1.26110000
O	23.77717776	11.08838607	1.26110000
O	23.77717776	21.57543214	1.26110000
O	6.62374588	16.33190607	1.26111000
O	6.62374588	26.81895214	1.26111000
O	21.87123776	16.33190607	1.26111000
O	21.87123776	26.81895214	1.26111000
O	6.62374588	12.55516607	1.83340000
O	6.62374588	23.04221214	1.83340000
O	21.87123776	12.55516607	1.83340000
O	21.87123776	23.04221214	1.83340000
O	8.52968588	17.79868607	1.83340000
O	8.52968588	28.28573214	1.83340000
O	23.77717776	17.79868607	1.83340000
O	23.77717776	28.28573214	1.83340000
O	8.52968588	14.83053607	2.72118000
O	8.52968588	25.31758214	2.72118000
O	23.77717776	14.83053607	2.72118000
O	23.77717776	25.31758214	2.72118000
O	6.62374588	20.07405607	2.72118000
O	6.62374588	30.56110214	2.72118000
O	21.87123776	20.07405607	2.72118000
O	21.87123776	30.56110214	2.72118000
O	10.43561588	19.30006607	0.37332000
O	10.43561588	29.78711214	0.37332000
O	25.68310776	19.30006607	0.37332000
O	25.68310776	29.78711214	0.37332000
O	14.24749588	19.30006607	0.37332000
O	14.24749588	29.78711214	0.37332000
O	29.49498776	19.30006607	0.37332000
O	29.49498776	29.78711214	0.37332000
O	18.05936588	19.30006607	0.37332000
O	18.05936588	29.78711214	0.37332000
O	12.34155588	14.05653607	0.37332000
O	12.34155588	24.54358214	0.37332000
O	27.58904776	14.05653607	0.37332000
O	27.58904776	24.54358214	0.37332000
O	16.15343588	14.05653607	0.37332000
O	16.15343588	24.54358214	0.37332000
O	19.96530588	14.05653607	0.37332000
O	19.96530588	24.54358214	0.37332000
O	12.34155588	11.08838607	1.26110000
O	12.34155588	21.57543214	1.26110000
O	27.58904776	11.08838607	1.26110000
O	27.58904776	21.57543214	1.26110000
O	16.15343588	11.08838607	1.26110000
O	16.15343588	21.57543214	1.26110000
O	19.96530588	11.08838607	1.26110000
O	19.96530588	21.57543214	1.26110000
O	10.43561588	16.33190607	1.26111000
O	10.43561588	26.81895214	1.26111000
O	25.68310776	16.33190607	1.26111000
O	25.68310776	26.81895214	1.26111000
O	14.24749588	16.33190607	1.26111000
O	14.24749588	26.81895214	1.26111000
O	29.49498776	16.33190607	1.26111000
O	29.49498776	26.81895214	1.26111000
O	18.05936588	16.33190607	1.26111000
O	18.05936588	26.81895214	1.26111000
O	10.43561588	12.55516607	1.83340000
O	10.43561588	23.04221214	1.83340000
O	25.68310776	12.55516607	1.83340000
O	25.68310776	23.04221214	1.83340000
O	14.24749588	12.55516607	1.83340000
O	14.24749588	23.04221214	1.83340000
O	29.49498776	12.55516607	1.83340000
O	29.49498776	23.04221214	1.83340000
O	18.05936588	12.55516607	1.83340000
O	18.05936588	23.04221214	1.83340000
O	12.34155588	17.79868607	1.83340000
O	12.34155588	28.28573214	1.83340000
O	27.58904776	17.79868607	1.83340000
O	27.58904776	28.28573214	1.83340000
O	16.15343588	17.79868607	1.83340000
O	16.15343588	28.28573214	1.83340000
O	19.96530588	17.79868607	1.83340000
O	19.96530588	28.28573214	1.83340000
O	12.34155588	14.83053607	2.72118000
O	12.34155588	25.31758214	2.72118000
O	27.58904776	14.83053607	2.72118000
O	27.58904776	25.31758214	2.72118000
O	16.15343588	14.83053607	2.72118000
O	16.15343588	25.31758214	2.72118000
O	19.96530588	14.83053607	2.72118000
O	19.96530588	25.31758214	2.72118000
O	10.43561588	20.07405607	2.72118000
O	10.43561588	30.56110214	2.72118000
O	25.68310776	20.07405607	2.72118000
O	25.68310776	30.56110214	2.72118000
O	14.24749588	20.07405607	2.72118000
O	14.24749588	30.56110214	2.72118000
O	29.49498776	20.07405607	2.72118000
O	29.49498776	30.56110214	2.72118000
O	18.05936588	20.07405607	2.72118000
O	18.05936588	30.56110214	2.72118000
Ti	6.65299581	9.26179930	4.74416170
Ti	6.54437898	6.38938175	5.51795530
Ti	2.74644783	9.24761859	4.71459958
Ti	0.76856010	3.91282003	4.78702893
Ti	4.60322269	4.00579640	4.70732135
Ti	0.93363924	0.97878614	5.51886866
Ti	4.80822343	1.11626265	5.68557625
Ti	2.65440430	6.37810723	5.60412823
O	6.76744787	7.33122745	3.97200325
O	6.53589492	4.51416639	4.79875236
O	6.65534278	0.55447451	6.00013945
O	6.54549897	8.14842719	6.31909007
O	2.66164925	7.34214242	4.03408169
O	0.82406595	1.98030587	3.92259257
O	4.86955009	2.06496255	3.99255159
O	0.83020673	9.64706925	4.70873417
O	4.69847226	9.67017721	4.83278636
O	2.68981510	4.54958823	4.82496395
O	2.79584278	0.68834128	5.73800046
O	0.76344795	5.84083335	5.80440206
O	4.63925004	5.98524139	5.74882598
O	0.97403913	2.90429114	6.47923655
O	4.73601701	2.91539485	6.30121938
O	2.77945212	8.17707779	6.35922296
Ti	22.02158644	9.21020114	4.74269260
Ti	8.41713970	4.08596168	4.78721923
Ti	23.66878600	4.02144529	4.72538111
Ti	8.43029191	1.12728423	5.50087269
Ti	23.77941837	1.14149917	5.50836758
Ti	21.82921196	6.36333089	5.58999880
Ti	10.42817168	9.21863269	4.77282335
Ti	25.78999959	9.26668324	4.79865810
Ti	14.24006392	9.29687596	4.68796792
Ti	29.46502587	9.21484725	4.71712163
Ti	18.09068447	9.22907133	4.71467320
Ti	12.27109147	4.06023466	4.69371340
Ti	27.57870947	3.92243385	4.67118156
Ti	16.10597334	4.04071865	4.77243529
Ti	19.96563583	3.97888257	4.80340774
Ti	12.33221168	1.17719623	5.40552424
Ti	27.58069502	1.05152727	5.51423258
Ti	16.19586374	1.10682483	5.62136600
Ti	19.91728314	1.09769578	5.53995874
Ti	10.35332757	6.34625147	5.50251908
Ti	25.60979231	6.30501383	5.51347739
Ti	14.17315719	6.34567234	5.42026551
Ti	29.35768744	6.30495833	5.46635375
Ti	18.10023500	6.36891151	5.60103114
O	21.86792035	7.36633365	3.97838252
O	8.35762642	2.24493015	3.93923953
O	23.63697171	2.04465960	3.86642346
O	8.50148187	9.57749112	4.72675030
O	23.85105796	9.66679563	4.95521803
O	21.73007306	4.38888554	4.90158736
O	21.87386760	0.54110334	5.84860422
O	8.44019283	5.89500713	5.84620283
O	23.80636488	5.74823721	5.83591215
O	8.45742478	2.87288085	6.35017091
O	23.82009925	2.87302564	6.34450280
O	21.81523436	8.16979396	6.38697391
O	10.32551198	7.24955955	3.94145280
O	25.46153584	7.32100342	3.90917689
O	14.47785204	7.45613338	3.90661180
O	29.26054164	7.34889794	3.92421826
O	18.16642636	7.33563177	3.96611370
O	12.36979427	2.11876498	3.87509620
O	27.36983195	1.95737199	3.95533754
O	16.01635050	2.06460846	3.98382465
O	20.05594108	2.17983578	3.97769726
O	12.37086299	9.61131779	4.86785947
O	27.60338356	9.68913453	4.86398934
O	16.10367232	9.74673667	4.74990376
O	19.99886312	9.61713171	4.75535845
O	10.39266231	4.37799697	4.81677909
O	25.68162673	4.32101170	4.68118320
O	14.21427660	4.43332794	4.70643985
O	29.44585669	4.32528344	4.80803263
O	18.01163015	4.46565228	4.76967587
O	10.44614948	0.55047645	5.70970938
O	25.68477584	0.58641185	5.70319870
O	14.18962166	0.47805088	5.86950374
O	29.50071749	0.54310063	5.69146161
O	18.03432176	0.49810608	5.84523645
O	12.31650910	5.95416098	5.62798915
O	27.43192025	5.66375754	5.89346078
O	16.06050048	5.88595424	5.73798363
O	19.90956640	5.84699190	5.99377952
O	12.10836825	2.89394299	6.31620204
O	27.63494241	2.75103499	6.30153378
O	16.11692170	2.87869197	6.34843815
O	19.85952037	2.79974576	6.31982490
O	10.42784436	8.06802129	6.40359101
O	25.84613771	8.04741002	6.26481973
O	14.24392333	8.11979953	6.26656147
O	29.46816181	7.97764040	6.35948039
O	17.92042636	8.18487218	6.41587948
Ti	6.69128606	19.69312554	4.79611754
Ti	6.69577765	30.25490794	4.69960992
Ti	6.55234779	16.79657242	5.49420129
Ti	6.56538514	27.31970382	5.48519881
Ti	2.81277688	19.79507402	4.72676898
Ti	2.92258656	30.27164563	4.85381362
Ti	0.87806804	14.35710917	4.68637293
Ti	0.98789048	24.93950757	4.70470195
Ti	4.48921829	14.42129996	4.81772257
Ti	4.75725646	24.96110812	4.68078128
Ti	0.88712267	11.51327944	5.47372747
Ti	0.87928982	22.06906775	5.48713529
Ti	4.69773502	11.53538891	5.47067943
Ti	4.83827904	22.00120674	5.41344946
Ti	2.58987274	16.89797880	5.63352563
Ti	2.97892184	27.31265004	5.55412877
O	6.70914792	17.83817253	3.93562323
O	6.75598521	28.28854422	3.95850115
O	6.43169866	14.73502392	4.82918472
O	6.62725801	25.39050008	4.72511266
O	6.62764881	11.03823761	5.67235422
O	6.64271826	21.53925908	5.84167906
O	6.53875957	18.49506811	6.33748864
O	6.40941989	29.02186449	6.32112867
O	2.81916291	17.91208179	3.91095124
O	2.98821582	28.28869546	3.97165850
O	0.90226243	12.52720628	3.88373389
O	0.88005510	22.98159521	3.83693277
O	4.72388518	12.58128999	3.96446652
O	4.83928968	23.18540379	3.87904052
O	0.85177569	20.16849053	4.83553075
O	1.03479039	30.59806090	4.83503347
O	4.71065828	20.11475466	4.80429843
O	4.74576664	30.71045450	4.78916443
O	2.69993745	15.09655739	4.98960032
O	2.79828308	25.40212745	4.92952010
O	2.77679880	11.05192108	5.63095364
O	2.87699948	21.70675156	5.57348774
O	0.84034208	16.77984140	6.37877213
O	0.96104094	26.80579335	5.81741786
O	4.67749500	16.37838531	5.83304263
O	4.74147741	26.67364300	5.92329610
O	0.98020617	13.32012703	6.39397220
O	1.04486146	23.78251500	6.29209775
O	4.50878605	13.37040153	6.43494638
O	4.56363010	23.61981489	6.36690965
O	2.89549979	18.72461209	6.37532714
O	2.81845503	29.06207770	6.36456526
Ti	21.87820863	19.76790475	4.83375404
Ti	21.84025363	30.22805408	4.73323410
Ti	8.37329061	14.54931626	4.66339273
Ti	8.47439570	24.92435467	4.78950888
Ti	23.88511909	14.47185301	4.83433623
Ti	23.84499079	24.97524191	4.67283230
Ti	8.54088423	11.56970709	5.39819734
Ti	8.54037886	22.04514553	5.43511436
Ti	23.79658177	11.56468800	5.53438261
Ti	23.81771457	22.10400748	5.56249904
Ti	21.92630890	16.80854553	5.49254211
Ti	21.98867249	27.30641531	5.49589371
Ti	10.37963872	19.72154826	4.67267207
Ti	10.44587346	30.27652603	4.72734002
Ti	25.59832254	19.76827396	4.81276611
Ti	25.67578061	30.24470579	4.79562730
Ti	14.22867885	19.56013818	4.74120680
Ti	14.19165379	30.14233817	4.75998798
Ti	29.37404007	19.81750793	4.71603841
Ti	29.57482930	30.21309228	4.79634182
Ti	18.12263602	19.67262127	4.83847108
Ti	18.02453190	30.08938354	4.78407162
Ti	12.36609659	14.54983431	4.64312493
Ti	12.31886675	24.93021547	4.69146716
Ti	27.63567642	14.48844703	4.87682615
Ti	27.61491997	25.01106603	4.85426028
Ti	16.18291109	14.56039469	4.71639992
Ti	16.16169706	24.91107345	4.84001726
Ti	20.02974553	14.52784386	4.73289696
Ti	20.03607753	25.04731955	4.74884349
Ti	12.40925825	11.63225373	5.41630762
Ti	12.32761712	22.04156738	5.53901912
Ti	27.61434057	11.61653179	5.58993130
Ti	27.57703040	22.07495734	5.54938956
Ti	16.20490577	11.69060256	5.56346757
Ti	16.21587251	21.94021525	5.50655502
Ti	19.96996819	11.53845415	5.44266447
Ti	19.99079314	22.11835818	5.58705086
Ti	10.29232545	16.78952851	5.49484365
Ti	10.51474180	27.31547418	5.48501258
Ti	25.72383883	16.78631873	5.44921649
Ti	25.71112676	27.34146757	5.51900979
Ti	14.26975318	16.67665682	5.91624904
Ti	14.22930485	27.20290744	5.50409457
Ti	29.59200930	16.93924011	5.70109074
Ti	29.51050282	27.25173140	5.52367128
Ti	18.14615707	16.75513005	5.54092069
Ti	18.05065249	27.17668608	5.56812158
O	21.62209213	17.97640515	3.93777482
O	22.06065869	28.36992580	3.92295060
O	8.71000146	12.67831213	3.87105397
O	8.80214536	23.12605213	3.90276502
O	23.86753715	12.68175488	3.96798979
O	23.62090978	23.13670495	3.96431941
O	8.52363057	20.18683621	4.79947485
O	8.50510855	30.69960603	4.71200193
O	23.73066257	20.22665058	4.89721716
O	23.76669093	30.71196987	4.71538491
O	22.02277906	14.97455446	4.68904276
O	21.90803178	25.52437813	4.77927026
O	21.85961934	11.11848398	5.64665049
O	21.96387396	21.62320979	5.82282190
O	8.32202544	16.20810040	5.72982691
O	8.46484255	26.79035183	5.78275861
O	23.83262817	16.29888837	5.76080070
O	23.85699078	26.80450175	5.82574916
O	8.43262290	13.17158234	6.29593419
O	8.52707106	23.72338894	6.36338339
O	23.78898139	13.24256995	6.41827428
O	23.79284763	23.91816870	6.33633391
O	21.97988360	18.54782615	6.39785790
O	21.99316937	29.07587964	6.40701966
O	10.34874484	17.92261397	3.95165174
O	10.44023047	28.31591269	3.97852152
O	25.67067968	17.85582896	3.98066376
O	25.67773351	28.39353999	3.93761673
O	14.17264906	17.73944318	4.01513448
O	14.27517382	28.27707590	3.95848435
O	29.60486609	17.80251279	4.01205492
O	29.47481218	28.31386960	3.97314927
O	18.23022463	17.88058200	4.02990897
O	17.97043335	28.30824654	3.94008333
O	12.29404276	12.59424374	3.84706394
O	12.27123488	22.94505103	3.86307493
O	27.80208393	12.58851466	3.96638953
O	27.63015353	23.13474801	3.97606158
O	16.17877236	12.61380693	3.95570694
O	16.09101532	23.07528238	3.97509675
O	19.88254504	12.66316605	3.92490799
O	20.00509660	23.18416561	4.02325342
O	12.31262148	20.04086801	4.72505927
O	12.32933277	30.64584370	4.79158556
O	27.48126748	20.18578845	4.78356002
O	27.55225960	30.42158004	4.90564390
O	16.14227009	19.99317596	4.74971152
O	16.13353672	30.64700607	4.86514296
O	20.00122742	20.20397074	4.92261505
O	19.88147721	30.63410797	4.71996322
O	10.41564378	14.99661033	4.67074747
O	10.35336504	25.24536670	4.90700424
O	25.78471000	14.91382671	4.64057675
O	25.67867382	25.43438678	4.64457829
O	14.28522807	14.96519417	4.76124881
O	14.20660339	25.39181325	4.70905638
O	29.59672356	15.00522770	5.06743455
O	29.61115298	25.31500520	4.79291765
O	18.14066670	14.99434422	4.73510166
O	18.08301367	25.35274907	4.72170265
O	10.49582063	11.04175972	5.76250326
O	10.38665251	21.64322117	5.70790881
O	25.71991862	11.14102906	5.79293543
O	25.64174681	21.64133581	5.78982011
O	14.23629548	10.93968987	5.88029085
O	14.21892328	21.41172191	5.86983581
O	29.49920574	11.04884548	5.80486374
O	29.53521852	21.60033228	5.81754751
O	18.05249547	11.16452179	5.58949709
O	18.09408047	21.54827244	5.74221411
O	12.19655530	16.21301890	5.82092019
O	12.38958644	26.81915251	5.62969888
O	27.59053659	16.29029399	5.84009407
O	27.59264922	26.77965837	5.87914814
O	16.26091494	16.39483613	5.68083760
O	16.16149341	26.68577993	5.88328554
O	20.06270744	16.22712268	5.95732921
O	20.03536692	26.84245548	5.65438965
O	12.24107600	13.34115941	6.24353430
O	12.27143690	23.78392977	6.35347710
O	27.49886624	13.37123054	6.44117336
O	27.62268273	23.85345164	6.38698516
O	16.35959753	13.50434200	6.32199978
O	16.38876020	23.74774929	6.39603135
O	19.90698730	13.32549311	6.30514801
O	19.92357423	23.86368783	6.38322180
O	10.47132406	18.61133251	6.34784167
O	10.30998964	29.13580345	6.31403152
O	25.54476684	18.66482762	6.37584400
O	25.51565653	29.03685815	6.40603618
O	14.40991328	18.49459486	6.32791409
O	14.29664064	29.00826859	6.31029544
O	29.30703675	18.69683176	6.40535519
O	29.67071711	28.95979461	6.37252499
O	18.17442904	18.53656808	6.38829324
O	18.02649084	28.93134826	6.36771363
H	13.01113360	14.11614022	7.91407902
H	13.75170881	14.59747513	11.32506197
H	15.15715924	17.98714076	8.97307143
O	14.45424392	15.74781084	7.60262933
O	13.10791075	14.47008577	8.83459280
C	13.93605685	15.45260998	8.79606001
C	14.39504897	16.14662935	10.03197859
C	14.15099365	15.60353933	11.23988873
C	14.91221264	17.44322543	9.90469989
N	13.27261936	19.37077305	15.45546816
N	15.68124568	22.46560981	17.01978485
N	15.79572311	20.44125305	14.77172613
N	13.05582913	21.40211322	17.80181516
C	21.53925897	21.62283432	15.92096964
C	13.87377169	24.42468563	22.50732464
C	7.49653646	19.44282689	16.95624554
C	19.15790709	22.11148765	15.48071831
C	14.29286703	24.05685513	20.16827551
C	9.91764796	19.38262363	17.11693465
C	21.00304847	23.29873574	14.34402268
C	13.50383045	26.23057198	21.02146165
C	8.59739854	17.39756189	17.68365072
C	14.56763764	18.62427355	13.54664235
C	17.68901638	21.84312889	15.66382398
C	14.40298032	23.09478223	19.00532924
C	11.30290566	19.91947482	16.84338282
C	15.73612342	19.38996215	13.86685923
C	17.04844502	20.90303221	14.85885618
C	13.24748175	22.24743227	18.83024062
C	11.81565544	20.87708139	17.78836191
C	17.05525299	19.22631922	13.30947861
C	17.87292762	20.03595927	14.01814851
C	11.98650795	22.30723099	19.58812966
C	11.14154829	21.45948396	18.91725604
C	13.47005536	18.56585424	14.38508798
C	16.96557339	22.72211710	16.54017659
C	15.56797180	23.17406551	18.19442940
C	11.94877395	19.20732364	15.87725915
C	12.22364977	17.90170550	14.00392857
C	17.56610878	23.78318932	17.28507241
C	16.71753775	24.01593935	18.34186342
C	11.29808362	18.24887356	14.91686819
H	12.12287456	17.19509824	13.17479727
H	18.61734724	24.06744093	17.20082732
H	16.90590384	24.54450040	19.29751103
H	10.27115940	17.90720489	15.00437157
H	17.32104921	18.49000296	12.57205178
H	18.99005366	20.08235744	13.94976172
H	11.83580530	22.93145758	20.49825469
H	10.11670835	21.18473310	19.31410024
H	21.33368535	24.09622963	13.66144230
H	13.07968925	27.24804202	20.77841461
H	8.50514240	16.29630213	17.92393329
H	22.16910880	21.01097831	16.56677571
H	13.88682525	24.05329528	23.54616890
H	6.55940624	19.97619519	16.75276893
H	14.93062565	20.83541749	15.18160615
H	13.75697438	21.15508746	17.05693830
C	23.47275189	22.81908123	14.86294462
H	23.78425462	23.76066451	15.24460846
H	23.79020357	22.82218002	13.82841023
H	23.98603239	22.00095895	15.42514084
C	19.86635916	20.19116354	17.08028944
H	19.69471836	20.49409194	18.14748450
H	20.62411378	19.42776097	17.11022003
H	18.96436717	19.70286338	16.69662788
C	18.66969781	23.54049379	13.53219027
H	19.01646832	24.26319322	12.83644643
H	17.84142306	24.08488541	14.08205263
H	18.22437334	22.74284967	12.91497011
C	11.06992630	17.17477497	17.64508402
H	11.95135969	17.73697068	17.92612553
H	11.32086833	16.57279703	16.70796763
H	10.90774071	16.42765666	18.43437594
C	8.86515607	21.41579200	16.19370572
H	9.84968685	21.54716617	15.69603998
H	8.68690719	22.16597151	16.94135711
H	8.13277950	21.61202777	15.38624492
C	6.08589171	17.58609078	17.68812961
H	6.02508667	16.56784932	17.24435872
H	5.34921823	18.33461174	17.26391232
H	5.93577858	17.57972633	18.76152933
C	13.58885946	25.81154947	18.54932546
H	12.71466561	25.24580599	18.21375234
H	14.46316111	25.49488961	17.95735551
H	13.46855316	26.81879027	18.41155854
C	14.88457282	22.19981823	21.81454811
H	15.98007209	22.18649676	21.78081386
H	14.48393796	21.44127919	21.15572985
H	14.54222924	21.99698538	22.87465774
C	12.88757600	26.50785128	23.45218117
H	13.68599730	27.12579155	23.90868537
H	12.40835600	25.79088857	24.13936616
H	12.11533261	27.20101607	23.00190378
C	21.99305312	22.58450127	15.02071156
C	20.18612751	21.36328344	16.18028024
C	19.63432289	23.00096036	14.52489661
C	13.85534970	25.39857286	19.95258305
C	14.30897605	23.58702732	21.45274536
C	13.48809383	25.76068571	22.31094625
C	9.83704049	18.01016351	17.49386363
C	8.75454658	20.04141876	16.75182932
C	7.39506885	18.14602639	17.43154958
H	13.93851531	16.05635910	13.42489353
H	15.32496480	19.24566139	10.99644215
C	14.61969827	17.71441534	12.35903802
C	14.20344062	16.42123508	12.41136516
C	15.11065441	18.17222666	11.05972028

Ti O H C N 0
6-31G*
****

