%chk=f00019833.chk
%mem=24GB
%nproc=12
#p b3lyp/6-31G*

title

0 1
Ti	2.81187400	0.19704000	1.10336000
Ti	0.90594400	5.44057000	1.10336000
Ti	4.71781400	5.44057000	1.10336000
Ti	0.90594400	2.47241000	1.99114000
Ti	4.71781400	2.47241000	1.99114000
Ti	2.81187400	7.71594000	1.99115000
O	2.81187400	8.81302000	0.37332000
O	0.90594400	3.56949000	0.37332000
O	4.71781400	3.56949000	0.37332000
O	0.90594400	0.60134000	1.26110000
O	4.71781400	0.60134000	1.26110000
O	2.81187400	5.84486000	1.26111000
O	2.81187400	2.06812000	1.83340000
O	0.90594400	7.31164000	1.83340000
O	4.71781400	7.31164000	1.83340000
O	0.90594400	4.34349000	2.72118000
O	4.71781400	4.34349000	2.72118000
O	2.81187400	9.58701000	2.72118000
Ti	6.62374588	0.19704000	1.10336000
Ti	21.87123776	0.19704000	1.10336000
Ti	8.52968588	5.44057000	1.10336000
Ti	23.77717776	5.44057000	1.10336000
Ti	8.52968588	2.47241000	1.99114000
Ti	23.77717776	2.47241000	1.99114000
Ti	6.62374588	7.71594000	1.99115000
Ti	21.87123776	7.71594000	1.99115000
Ti	10.43561588	0.19704000	1.10336000
Ti	25.68310776	0.19704000	1.10336000
Ti	14.24749588	0.19704000	1.10336000
Ti	29.49498776	0.19704000	1.10336000
Ti	18.05936588	0.19704000	1.10336000
Ti	12.34155588	5.44057000	1.10336000
Ti	27.58904776	5.44057000	1.10336000
Ti	16.15343588	5.44057000	1.10336000
Ti	19.96530588	5.44057000	1.10336000
Ti	12.34155588	2.47241000	1.99114000
Ti	27.58904776	2.47241000	1.99114000
Ti	16.15343588	2.47241000	1.99114000
Ti	19.96530588	2.47241000	1.99114000
Ti	10.43561588	7.71594000	1.99115000
Ti	25.68310776	7.71594000	1.99115000
Ti	14.24749588	7.71594000	1.99115000
Ti	29.49498776	7.71594000	1.99115000
Ti	18.05936588	7.71594000	1.99115000
O	6.62374588	8.81302000	0.37332000
O	21.87123776	8.81302000	0.37332000
O	8.52968588	3.56949000	0.37332000
O	23.77717776	3.56949000	0.37332000
O	8.52968588	0.60134000	1.26110000
O	23.77717776	0.60134000	1.26110000
O	6.62374588	5.84486000	1.26111000
O	21.87123776	5.84486000	1.26111000
O	6.62374588	2.06812000	1.83340000
O	21.87123776	2.06812000	1.83340000
O	8.52968588	7.31164000	1.83340000
O	23.77717776	7.31164000	1.83340000
O	8.52968588	4.34349000	2.72118000
O	23.77717776	4.34349000	2.72118000
O	6.62374588	9.58701000	2.72118000
O	21.87123776	9.58701000	2.72118000
O	10.43561588	8.81302000	0.37332000
O	25.68310776	8.81302000	0.37332000
O	14.24749588	8.81302000	0.37332000
O	29.49498776	8.81302000	0.37332000
O	18.05936588	8.81302000	0.37332000
O	12.34155588	3.56949000	0.37332000
O	27.58904776	3.56949000	0.37332000
O	16.15343588	3.56949000	0.37332000
O	19.96530588	3.56949000	0.37332000
O	12.34155588	0.60134000	1.26110000
O	27.58904776	0.60134000	1.26110000
O	16.15343588	0.60134000	1.26110000
O	19.96530588	0.60134000	1.26110000
O	10.43561588	5.84486000	1.26111000
O	25.68310776	5.84486000	1.26111000
O	14.24749588	5.84486000	1.26111000
O	29.49498776	5.84486000	1.26111000
O	18.05936588	5.84486000	1.26111000
O	10.43561588	2.06812000	1.83340000
O	25.68310776	2.06812000	1.83340000
O	14.24749588	2.06812000	1.83340000
O	29.49498776	2.06812000	1.83340000
O	18.05936588	2.06812000	1.83340000
O	12.34155588	7.31164000	1.83340000
O	27.58904776	7.31164000	1.83340000
O	16.15343588	7.31164000	1.83340000
O	19.96530588	7.31164000	1.83340000
O	12.34155588	4.34349000	2.72118000
O	27.58904776	4.34349000	2.72118000
O	16.15343588	4.34349000	2.72118000
O	19.96530588	4.34349000	2.72118000
O	10.43561588	9.58701000	2.72118000
O	25.68310776	9.58701000	2.72118000
O	14.24749588	9.58701000	2.72118000
O	29.49498776	9.58701000	2.72118000
O	18.05936588	9.58701000	2.72118000
Ti	2.81187400	10.68408607	1.10336000
Ti	2.81187400	21.17113214	1.10336000
Ti	0.90594400	15.92761607	1.10336000
Ti	0.90594400	26.41466214	1.10336000
Ti	4.71781400	15.92761607	1.10336000
Ti	4.71781400	26.41466214	1.10336000
Ti	0.90594400	12.95945607	1.99114000
Ti	0.90594400	23.44650214	1.99114000
Ti	4.71781400	12.95945607	1.99114000
Ti	4.71781400	23.44650214	1.99114000
Ti	2.81187400	18.20298607	1.99115000
Ti	2.81187400	28.69003214	1.99115000
O	2.81187400	19.30006607	0.37332000
O	2.81187400	29.78711214	0.37332000
O	0.90594400	14.05653607	0.37332000
O	0.90594400	24.54358214	0.37332000
O	4.71781400	14.05653607	0.37332000
O	4.71781400	24.54358214	0.37332000
O	0.90594400	11.08838607	1.26110000
O	0.90594400	21.57543214	1.26110000
O	4.71781400	11.08838607	1.26110000
O	4.71781400	21.57543214	1.26110000
O	2.81187400	16.33190607	1.26111000
O	2.81187400	26.81895214	1.26111000
O	2.81187400	12.55516607	1.83340000
O	2.81187400	23.04221214	1.83340000
O	0.90594400	17.79868607	1.83340000
O	0.90594400	28.28573214	1.83340000
O	4.71781400	17.79868607	1.83340000
O	4.71781400	28.28573214	1.83340000
O	0.90594400	14.83053607	2.72118000
O	0.90594400	25.31758214	2.72118000
O	4.71781400	14.83053607	2.72118000
O	4.71781400	25.31758214	2.72118000
O	2.81187400	20.07405607	2.72118000
O	2.81187400	30.56110214	2.72118000
Ti	6.62374588	10.68408607	1.10336000
Ti	6.62374588	21.17113214	1.10336000
Ti	21.87123776	10.68408607	1.10336000
Ti	21.87123776	21.17113214	1.10336000
Ti	8.52968588	15.92761607	1.10336000
Ti	8.52968588	26.41466214	1.10336000
Ti	23.77717776	15.92761607	1.10336000
Ti	23.77717776	26.41466214	1.10336000
Ti	8.52968588	12.95945607	1.99114000
Ti	8.52968588	23.44650214	1.99114000
Ti	23.77717776	12.95945607	1.99114000
Ti	23.77717776	23.44650214	1.99114000
Ti	6.62374588	18.20298607	1.99115000
Ti	6.62374588	28.69003214	1.99115000
Ti	21.87123776	18.20298607	1.99115000
Ti	21.87123776	28.69003214	1.99115000
Ti	10.43561588	10.68408607	1.10336000
Ti	10.43561588	21.17113214	1.10336000
Ti	25.68310776	10.68408607	1.10336000
Ti	25.68310776	21.17113214	1.10336000
Ti	14.24749588	10.68408607	1.10336000
Ti	14.24749588	21.17113214	1.10336000
Ti	29.49498776	10.68408607	1.10336000
Ti	29.49498776	21.17113214	1.10336000
Ti	18.05936588	10.68408607	1.10336000
Ti	18.05936588	21.17113214	1.10336000
Ti	12.34155588	15.92761607	1.10336000
Ti	12.34155588	26.41466214	1.10336000
Ti	27.58904776	15.92761607	1.10336000
Ti	27.58904776	26.41466214	1.10336000
Ti	16.15343588	15.92761607	1.10336000
Ti	16.15343588	26.41466214	1.10336000
Ti	19.96530588	15.92761607	1.10336000
Ti	19.96530588	26.41466214	1.10336000
Ti	12.34155588	12.95945607	1.99114000
Ti	12.34155588	23.44650214	1.99114000
Ti	27.58904776	12.95945607	1.99114000
Ti	27.58904776	23.44650214	1.99114000
Ti	16.15343588	12.95945607	1.99114000
Ti	16.15343588	23.44650214	1.99114000
Ti	19.96530588	12.95945607	1.99114000
Ti	19.96530588	23.44650214	1.99114000
Ti	10.43561588	18.20298607	1.99115000
Ti	10.43561588	28.69003214	1.99115000
Ti	25.68310776	18.20298607	1.99115000
Ti	25.68310776	28.69003214	1.99115000
Ti	14.24749588	18.20298607	1.99115000
Ti	14.24749588	28.69003214	1.99115000
Ti	29.49498776	18.20298607	1.99115000
Ti	29.49498776	28.69003214	1.99115000
Ti	18.05936588	18.20298607	1.99115000
Ti	18.05936588	28.69003214	1.99115000
O	6.62374588	19.30006607	0.37332000
O	6.62374588	29.78711214	0.37332000
O	21.87123776	19.30006607	0.37332000
O	21.87123776	29.78711214	0.37332000
O	8.52968588	14.05653607	0.37332000
O	8.52968588	24.54358214	0.37332000
O	23.77717776	14.05653607	0.37332000
O	23.77717776	24.54358214	0.37332000
O	8.52968588	11.08838607	1.26110000
O	8.52968588	21.57543214	1.26110000
O	23.77717776	11.08838607	1.26110000
O	23.77717776	21.57543214	1.26110000
O	6.62374588	16.33190607	1.26111000
O	6.62374588	26.81895214	1.26111000
O	21.87123776	16.33190607	1.26111000
O	21.87123776	26.81895214	1.26111000
O	6.62374588	12.55516607	1.83340000
O	6.62374588	23.04221214	1.83340000
O	21.87123776	12.55516607	1.83340000
O	21.87123776	23.04221214	1.83340000
O	8.52968588	17.79868607	1.83340000
O	8.52968588	28.28573214	1.83340000
O	23.77717776	17.79868607	1.83340000
O	23.77717776	28.28573214	1.83340000
O	8.52968588	14.83053607	2.72118000
O	8.52968588	25.31758214	2.72118000
O	23.77717776	14.83053607	2.72118000
O	23.77717776	25.31758214	2.72118000
O	6.62374588	20.07405607	2.72118000
O	6.62374588	30.56110214	2.72118000
O	21.87123776	20.07405607	2.72118000
O	21.87123776	30.56110214	2.72118000
O	10.43561588	19.30006607	0.37332000
O	10.43561588	29.78711214	0.37332000
O	25.68310776	19.30006607	0.37332000
O	25.68310776	29.78711214	0.37332000
O	14.24749588	19.30006607	0.37332000
O	14.24749588	29.78711214	0.37332000
O	29.49498776	19.30006607	0.37332000
O	29.49498776	29.78711214	0.37332000
O	18.05936588	19.30006607	0.37332000
O	18.05936588	29.78711214	0.37332000
O	12.34155588	14.05653607	0.37332000
O	12.34155588	24.54358214	0.37332000
O	27.58904776	14.05653607	0.37332000
O	27.58904776	24.54358214	0.37332000
O	16.15343588	14.05653607	0.37332000
O	16.15343588	24.54358214	0.37332000
O	19.96530588	14.05653607	0.37332000
O	19.96530588	24.54358214	0.37332000
O	12.34155588	11.08838607	1.26110000
O	12.34155588	21.57543214	1.26110000
O	27.58904776	11.08838607	1.26110000
O	27.58904776	21.57543214	1.26110000
O	16.15343588	11.08838607	1.26110000
O	16.15343588	21.57543214	1.26110000
O	19.96530588	11.08838607	1.26110000
O	19.96530588	21.57543214	1.26110000
O	10.43561588	16.33190607	1.26111000
O	10.43561588	26.81895214	1.26111000
O	25.68310776	16.33190607	1.26111000
O	25.68310776	26.81895214	1.26111000
O	14.24749588	16.33190607	1.26111000
O	14.24749588	26.81895214	1.26111000
O	29.49498776	16.33190607	1.26111000
O	29.49498776	26.81895214	1.26111000
O	18.05936588	16.33190607	1.26111000
O	18.05936588	26.81895214	1.26111000
O	10.43561588	12.55516607	1.83340000
O	10.43561588	23.04221214	1.83340000
O	25.68310776	12.55516607	1.83340000
O	25.68310776	23.04221214	1.83340000
O	14.24749588	12.55516607	1.83340000
O	14.24749588	23.04221214	1.83340000
O	29.49498776	12.55516607	1.83340000
O	29.49498776	23.04221214	1.83340000
O	18.05936588	12.55516607	1.83340000
O	18.05936588	23.04221214	1.83340000
O	12.34155588	17.79868607	1.83340000
O	12.34155588	28.28573214	1.83340000
O	27.58904776	17.79868607	1.83340000
O	27.58904776	28.28573214	1.83340000
O	16.15343588	17.79868607	1.83340000
O	16.15343588	28.28573214	1.83340000
O	19.96530588	17.79868607	1.83340000
O	19.96530588	28.28573214	1.83340000
O	12.34155588	14.83053607	2.72118000
O	12.34155588	25.31758214	2.72118000
O	27.58904776	14.83053607	2.72118000
O	27.58904776	25.31758214	2.72118000
O	16.15343588	14.83053607	2.72118000
O	16.15343588	25.31758214	2.72118000
O	19.96530588	14.83053607	2.72118000
O	19.96530588	25.31758214	2.72118000
O	10.43561588	20.07405607	2.72118000
O	10.43561588	30.56110214	2.72118000
O	25.68310776	20.07405607	2.72118000
O	25.68310776	30.56110214	2.72118000
O	14.24749588	20.07405607	2.72118000
O	14.24749588	30.56110214	2.72118000
O	29.49498776	20.07405607	2.72118000
O	29.49498776	30.56110214	2.72118000
O	18.05936588	20.07405607	2.72118000
O	18.05936588	30.56110214	2.72118000
Ti	6.63728855	9.14996898	4.69135527
Ti	6.63826591	6.23933588	5.43824414
Ti	2.84219113	9.15363372	4.70164180
Ti	0.87232329	3.93537706	4.70621544
Ti	4.72878557	4.01192000	4.73113300
Ti	0.95309680	1.05162218	5.47613301
Ti	4.73003015	1.07265065	5.44038408
Ti	2.73148403	6.22258027	5.46478252
O	6.67406746	7.28605873	3.88439528
O	6.62256184	4.30440025	4.75243521
O	6.63554098	0.53478193	5.85251562
O	6.73615758	7.97486563	6.22085891
O	2.85945368	7.28989618	3.91858195
O	0.94788524	2.02978869	3.93664364
O	4.71334161	2.00879129	3.88397410
O	0.87517054	9.59887736	4.76254844
O	4.73602549	9.62845679	5.04358490
O	2.79542071	4.29839154	4.89647164
O	2.82581994	0.64188160	5.60323975
O	0.89825249	5.78626670	5.60312968
O	4.69805720	5.77256677	5.67484253
O	1.01570566	2.83444119	6.43770623
O	4.63579878	2.77971509	6.32940212
O	2.82616327	7.92132417	6.37905962
Ti	21.81443529	9.36184343	4.73161839
Ti	8.58578417	3.83545017	4.83209856
Ti	23.66764510	3.93890828	4.78871192
Ti	8.50009008	0.97129634	5.51702835
Ti	23.76732934	1.06539921	5.44029698
Ti	21.71987396	6.38260787	5.48468060
Ti	10.41910060	9.24090445	4.68797397
Ti	25.71559158	9.22191570	4.80306549
Ti	14.22517834	9.12816863	4.67474120
Ti	29.52783707	9.16366070	4.77729184
Ti	18.07275747	9.27236566	4.64929757
Ti	12.37479213	4.00411212	4.70858122
Ti	27.52629127	3.95935930	4.70291708
Ti	16.20186457	3.97970926	4.72865598
Ti	19.88750209	3.95266076	4.74389901
Ti	12.30537070	1.25620901	5.64917454
Ti	27.53339551	1.02791005	5.51223767
Ti	15.99802027	1.18066402	5.70961848
Ti	19.99187462	1.01285296	5.39673322
Ti	10.35983170	6.37328419	5.58816456
Ti	25.57256914	6.31865853	5.44592101
Ti	14.27219284	6.24496223	5.44087555
Ti	29.41414667	6.23481060	5.49278246
Ti	18.05595680	6.35537650	5.46549182
O	21.80826614	7.45201057	3.88875580
O	8.40875436	1.96062721	3.89788590
O	23.78124303	2.18046229	3.88074240
O	8.52348767	9.71593223	4.64236609
O	23.75712801	9.61639690	4.84500226
O	21.77215908	4.39621245	4.91446992
O	21.86414341	0.55730444	5.50593023
O	8.50415226	5.67389527	5.84901526
O	23.59308890	5.93497096	5.57177245
O	8.68456661	2.72566076	6.39462911
O	23.90153129	2.80665631	6.48150476
O	21.62080845	8.09712167	6.29685671
O	10.28346676	7.36491822	3.94277677
O	25.81607580	7.34569819	3.91759172
O	14.03403388	7.29326830	3.88809722
O	29.42570429	7.34275072	3.96319969
O	18.09034312	7.34500061	3.96003096
O	12.30362251	2.11640053	3.95561731
O	27.51145891	2.00127705	3.95074910
O	16.09954257	2.02674566	3.99407085
O	19.89620003	2.02913392	3.84745725
O	12.34614890	9.62179552	4.62057529
O	27.57191672	9.61171055	4.79225557
O	16.08853104	9.56374459	4.86400437
O	19.97147477	9.87473508	4.68030341
O	10.42267756	4.45069330	4.97642712
O	25.57058578	4.41173425	4.79585008
O	14.24506247	4.34696494	4.88794640
O	29.43962181	4.19470617	4.87802145
O	18.04258311	4.45309275	4.75999715
O	10.51436272	0.58683943	5.80293520
O	25.65705057	0.47958211	5.85206439
O	14.13685386	0.97910180	6.28698787
O	29.50667043	0.66483758	5.65239726
O	18.00226969	0.67256129	5.84673447
O	12.33887259	5.84842333	5.68215941
O	27.51698584	5.72601028	5.69039088
O	16.11009936	5.90927913	5.73395169
O	19.82779652	5.80376795	5.78305923
O	12.22252522	3.13400460	6.47568051
O	27.45758344	2.72093348	6.48549836
O	16.21210851	2.91565419	6.45959867
O	20.05636686	2.79830643	6.21100050
O	10.39358602	8.15936505	6.34492715
O	25.56715722	8.01539330	6.33989257
O	14.00012760	7.99822223	6.30629866
O	29.37821041	8.02841981	6.46306986
O	18.13719428	8.10246682	6.41096737
Ti	6.69064843	19.60881187	4.68198269
Ti	6.58322033	30.20006185	4.75207892
Ti	6.63203952	16.75872415	5.55362547
Ti	6.68738576	27.31932910	5.56407325
Ti	2.84340132	19.87414906	4.70983070
Ti	2.85524707	30.23530921	4.64698105
Ti	0.86596730	14.32332621	4.68659124
Ti	0.94492652	25.00968500	4.86327410
Ti	4.58870211	14.54875581	4.66250568
Ti	4.78133829	25.02897233	4.79378475
Ti	0.83546996	11.46286106	5.51740786
Ti	0.86773452	22.10465503	5.56025962
Ti	4.69915902	11.60896266	5.47013896
Ti	4.77983091	22.11316322	5.60637495
Ti	2.78231660	16.99861324	5.55668076
Ti	2.71506181	27.39892292	5.47991413
O	6.49581776	17.80476983	3.98067732
O	6.62211895	28.33185066	3.95674302
O	6.50766239	14.88307760	4.98764615
O	6.64283748	25.43027841	4.71093807
O	6.71689124	11.12951140	5.70275422
O	6.63554470	21.76492516	6.09467726
O	6.85159420	18.45499169	6.29041976
O	6.39846388	29.04484923	6.45823358
O	2.71391864	17.87392555	3.87596419
O	2.81273045	28.31925180	3.84695338
O	0.81587717	12.44157830	3.90311558
O	0.96859365	23.13597630	3.93455291
O	4.78557304	12.61159156	3.97552059
O	4.77301401	23.11652186	4.00470586
O	0.89115525	20.18475919	4.81703477
O	0.92527066	30.63899072	4.80334979
O	4.88065111	20.22643573	4.86772977
O	4.78832662	30.66787848	4.67572329
O	2.65532593	15.00455101	4.95805360
O	2.80501903	25.43432071	4.85325549
O	2.79901484	11.06154786	5.73853065
O	2.84276111	21.65843098	5.65218374
O	0.91104160	16.87854875	6.06898967
O	0.85436705	26.75418113	5.75754897
O	4.59655050	16.49053086	5.63215239
O	4.73934679	26.85729663	5.65724039
O	0.69656123	13.18124491	6.33283935
O	1.08947553	23.85951094	6.33968679
O	4.78140304	13.34004995	6.29476110
O	4.69395735	23.90190492	6.33791966
O	2.93363086	18.75870489	6.25304469
O	2.83903743	29.09128095	6.28493580
Ti	21.97410910	19.76629800	4.73061836
Ti	21.90830236	30.16757467	4.69563783
Ti	8.51264944	14.51991350	4.73458038
Ti	8.52692380	25.01470466	4.75203061
Ti	23.84254519	14.48902418	4.70459364
Ti	23.69159819	24.96914845	4.79530307
Ti	8.57295231	11.59896508	5.37181472
Ti	8.48053216	22.15879430	5.64675910
Ti	23.86761397	11.52263598	5.45362347
Ti	23.76229613	22.04317210	5.51753684
Ti	22.05770258	16.95657443	5.54968638
Ti	21.84711051	27.23197326	5.53266001
Ti	10.35678181	19.74956676	4.80211207
Ti	10.56367655	30.15279368	4.78493478
Ti	25.65340092	19.75305247	4.69011525
Ti	25.61632533	30.18684274	4.81670772
Ti	14.18261940	19.70569392	4.75402712
Ti	14.26919566	30.05602642	4.63778923
Ti	29.47529473	19.86019591	4.67272111
Ti	29.47022618	30.21120879	4.72654760
Ti	18.04476040	19.71773019	4.67173682
Ti	17.97952913	30.24406551	4.80599899
Ti	12.36162341	14.51285653	4.71792152
Ti	12.37078225	24.94028840	4.70820135
Ti	27.66996979	14.58510330	4.79007161
Ti	27.54724345	24.96086811	4.72900641
Ti	16.23996935	14.46767427	4.78262688
Ti	16.17486711	24.91681846	4.82001196
Ti	20.05098392	14.48968926	4.69558638
Ti	19.92430782	24.87342717	4.74150818
Ti	12.32497332	11.58581767	5.41018159
Ti	12.32073001	22.06405710	5.55747166
Ti	27.56168761	11.51160929	5.46107350
Ti	27.43217993	22.10924881	5.52983461
Ti	16.12043906	11.61833609	5.54461521
Ti	16.15498334	21.96842362	5.37773994
Ti	19.97021399	11.61192130	5.55143469
Ti	19.97976385	21.94815473	5.44761664
Ti	10.47854017	16.77337062	5.53517646
Ti	10.48729846	27.22073730	5.48546356
Ti	25.75958007	16.79870594	5.70646128
Ti	25.64215535	27.24156160	5.50071782
Ti	14.33329635	16.73566780	5.73619911
Ti	14.26275420	27.23420654	5.62758162
Ti	29.61365263	16.94095121	5.58900915
Ti	29.43389376	27.23380696	5.45671538
Ti	18.10738777	16.78650419	5.40380472
Ti	18.05384486	27.27712844	5.46174625
O	21.90342851	17.90490023	3.98406543
O	21.77725097	28.31445870	3.99350373
O	8.50570561	12.67302219	3.93329189
O	8.60862292	23.17177145	3.98215860
O	23.76767306	12.57300484	3.92977087
O	23.75008798	23.09066627	3.96543663
O	8.41027595	20.17569838	4.81253903
O	8.63698222	30.52348363	4.93898924
O	23.77258085	20.22562855	4.59039479
O	23.78245964	30.64708980	4.82175847
O	21.99931371	14.92869610	4.98354861
O	21.86704255	25.32921441	4.80725796
O	21.90400908	11.10523226	5.85443391
O	21.91194149	21.58670899	5.94754221
O	8.57278666	16.28425376	5.52933365
O	8.53097505	26.91211886	5.65405822
O	23.82656579	16.31149677	5.91040131
O	23.71349089	26.65478626	5.91957568
O	8.52881133	13.33177330	6.36363969
O	8.60819957	23.90266442	6.55952995
O	23.91753527	13.26273937	6.28347245
O	23.83479928	23.76999925	6.37408904
O	22.02322507	18.67006590	6.32353203
O	22.16852208	28.91985905	6.31824869
O	10.62464025	17.80413047	3.94144465
O	10.48586033	28.28629242	3.92206459
O	25.82547837	17.73283101	3.92258592
O	25.80154876	28.37049101	3.95659923
O	14.18482970	17.70978195	4.00486603
O	14.41777601	28.17334346	3.89150322
O	29.48843598	17.94642924	4.02326223
O	29.58900746	28.36456165	3.92580225
O	18.09064430	17.86657760	3.85376087
O	17.98884619	28.40250698	3.93821844
O	12.47777788	12.55786011	3.88198998
O	12.36859259	23.03587883	3.92697831
O	27.59755730	12.56374048	3.93221825
O	27.58645732	23.08948361	3.97094147
O	16.10400598	12.58522062	3.92424754
O	16.16645247	23.14642950	3.91118915
O	19.85788187	12.63470278	3.93771697
O	19.89954601	23.04827791	3.86230302
O	12.28577026	20.08906071	4.80535560
O	12.48421591	30.82265703	4.85344606
O	27.52270571	20.09648478	4.90947461
O	27.56592390	30.51727337	4.88574747
O	16.16149330	20.16961848	4.61027663
O	15.98026787	30.75631230	5.04148094
O	20.03183849	20.12676844	4.62713007
O	19.85651636	30.47127648	4.98194839
O	10.47119012	14.97637772	4.57432467
O	10.40890887	25.30692406	4.83437807
O	25.74560193	14.87474870	4.78244771
O	25.64921910	25.37810851	4.81706024
O	14.28985663	14.84486715	4.74719040
O	14.20328246	25.39164677	4.79047988
O	29.62584788	15.09222727	4.84849865
O	29.52544878	25.31071107	4.78629534
O	18.14621734	14.79630631	4.80144992
O	18.06873404	25.35607551	4.81792323
O	10.41809821	11.13494706	5.66019674
O	10.39355259	21.51160359	5.75025907
O	25.76666607	10.98821767	5.83054790
O	25.55916915	21.36451608	5.96204126
O	14.24994918	11.14312701	5.60745286
O	14.20389010	21.54457380	5.53544237
O	29.43525890	10.96220312	5.88325714
O	29.40594735	21.71377289	5.78663172
O	18.03854472	11.20186269	5.54668281
O	18.10079382	21.46736723	5.63491770
O	12.36384138	16.34868837	5.72315515
O	12.35893509	26.73930786	5.77437391
O	27.65788088	16.44876190	5.79575376
O	27.59130254	26.70913160	5.63990253
O	16.25381921	16.20449936	5.76148572
O	16.19074743	26.75514552	5.80760935
O	20.02248468	16.42371120	5.62738832
O	19.90084976	26.87729669	5.72673851
O	12.17242635	13.31968069	6.21646182
O	12.15962215	23.87461556	6.34636205
O	27.50376976	13.34270431	6.41404315
O	27.39420233	23.81202611	6.32107303
O	16.10573269	13.31351320	6.36407689
O	16.11545684	23.62242558	6.44914882
O	20.09004128	13.38959394	6.28721090
O	19.86099256	23.71481693	6.29357393
O	10.35519893	18.54300961	6.33839102
O	10.67165333	28.97865602	6.31434136
O	25.62824075	18.54911295	6.30654021
O	25.51802609	29.09999654	6.35977011
O	14.32632148	18.67262227	6.35827553
O	14.12993296	28.98366722	6.43371182
O	29.36372978	18.70558773	6.41650641
O	29.51470957	29.03236620	6.36429413
O	18.15792547	18.53726815	6.14229365
O	17.97558002	29.04355775	6.42691321
H	12.82999513	14.41696660	7.80713156
H	12.60634558	15.21334083	11.08864775
H	15.27863912	17.89038654	9.05447077
O	14.26565489	16.15025701	7.62233774
O	12.76101301	14.83859198	8.71187677
C	13.54723583	15.82003998	8.76007515
C	13.89321049	16.56596429	9.98625813
C	13.20875523	16.12913677	11.15781094
C	14.73764438	17.65496052	9.93429144
N	13.00885333	19.59154787	15.52234162
N	15.90979972	21.78960973	17.42489645
N	15.88020062	20.03817198	15.04409530
N	13.01940183	21.42202897	17.93872723
C	21.55388026	20.36756797	16.14229593
C	14.45230950	24.82620926	22.41030425
C	7.23562502	20.81002952	16.95877767
C	19.39190057	21.36546440	15.85475675
C	14.63358589	23.92436637	20.18937720
C	9.56042650	20.15399684	17.13041863
C	21.44197059	22.54926158	15.17585529
C	14.41048045	26.42294602	20.61784000
C	7.79481187	18.65472489	17.93753032
C	14.31159563	18.73279599	13.65510554
C	17.91561100	21.16886235	16.00358514
C	14.56967059	22.86331231	19.20711593
C	10.97934071	20.33356795	16.93874629
C	15.62789924	19.05907118	14.13356526
C	17.22949004	20.31030811	15.07738248
C	13.32327491	22.26027167	18.96723983
C	11.69009540	21.14731389	17.85348311
C	16.85609111	18.66876789	13.51479344
C	17.83353150	19.47552770	14.07555906
C	12.09565706	22.56695465	19.66421308
C	11.09031984	21.95961587	18.94782588
C	13.11056017	19.06642180	14.26553330
C	17.25179433	21.86446867	17.08020525
C	15.74604631	22.59515702	18.52338304
C	11.62069138	19.76249618	15.81116938
C	11.78936201	18.97420303	13.66148913
C	17.90149708	22.80378933	17.89720209
C	17.03719484	23.22367723	18.82123681
C	10.89478758	19.28481803	14.65048802
H	11.57342539	18.58420187	12.66576735
H	18.96483679	23.14224435	17.87776038
H	17.01073322	24.00481142	19.55929412
H	9.80814370	19.24014847	14.64507452
H	16.97773836	17.87378505	12.77584361
H	18.95024388	19.54268962	13.97249044
H	11.97987301	23.28921015	20.48052257
H	10.00385318	22.00973710	19.10293378
H	22.00070247	23.45690209	14.88683329
H	14.38598173	27.44096718	20.27090356
H	7.52466428	17.65568414	18.21983145
H	22.12436222	19.49064465	16.57297684
H	14.48111467	24.60649482	23.50968204
H	6.53873802	21.57005910	16.66575054
H	15.13519616	20.55662490	15.57429195
H	13.66680830	20.99493857	17.25800273
C	23.73149544	21.49418270	15.81673891
H	24.25712329	22.37702128	15.50010213
H	24.16437558	20.57213328	15.30107101
H	23.95640573	21.36191624	16.86021614
C	19.64015662	19.10318401	17.01393869
H	20.10943698	18.25087017	16.49625258
H	18.55138906	19.00240987	17.11764241
H	20.04456377	19.09560527	18.03559824
C	19.22136048	23.48576003	14.47073826
H	19.73146982	23.81984739	13.51740535
H	19.15299520	24.41384295	15.10195042
H	18.24870531	23.07186298	14.26483541
C	10.24201944	17.88987171	17.97097353
H	9.79694608	16.84620147	17.93478574
H	10.71097680	17.98908095	18.94441154
H	11.01774523	17.94856158	17.20160267
C	8.94436096	22.34880878	15.90226566
H	8.87488582	23.18647793	16.59640899
H	8.20860843	22.46359084	15.12418468
H	9.90174695	22.24942746	15.41361237
C	5.39031675	19.37197403	17.81832059
H	5.07334665	18.38360494	17.47180828
H	4.68198401	20.06568278	17.21475354
H	5.15385357	19.43888675	18.86347636
C	14.49559112	25.54543975	18.24838402
H	13.43799167	25.52410858	17.90499745
H	15.06813550	24.82299174	17.68180284
H	14.89015719	26.58547515	17.92195793
C	14.75941180	22.35583081	22.17075289
H	14.28190251	21.60900102	21.54144989
H	14.40804535	22.36671759	23.17839152
H	15.83877197	22.08592912	22.20761317
C	14.53035912	27.23167976	22.99592753
H	13.71783356	28.00415964	23.02899132
H	15.43453180	27.79687628	22.85506573
H	14.48666960	26.78406772	23.99917605
C	22.23097768	21.52851281	15.72144272
C	20.15516357	20.25620812	16.24358230
C	20.00808335	22.43308801	15.14363678
C	14.52926610	25.32189729	19.76160656
C	14.64628299	23.68635539	21.56491604
C	14.39215304	26.15540539	21.98158697
C	9.16238048	18.92903026	17.69773071
C	8.58957868	21.10541380	16.71133527
C	6.85735514	19.65705028	17.57047348
H	12.85070014	16.64967066	13.31850819
H	15.40790611	19.31705782	11.22880112
C	14.18167496	17.98084517	12.34406602
C	13.32537702	16.86249927	12.32385013
C	14.89969118	18.35000719	11.16943339

Ti O H C N 0
6-31G*
****

