%chk=f00016167.chk
%mem=24GB
%nproc=12
#p b3lyp/6-31G*

title

0 1
Ti	2.81187400	0.19704000	1.10336000
Ti	0.90594400	5.44057000	1.10336000
Ti	4.71781400	5.44057000	1.10336000
Ti	0.90594400	2.47241000	1.99114000
Ti	4.71781400	2.47241000	1.99114000
Ti	2.81187400	7.71594000	1.99115000
O	2.81187400	8.81302000	0.37332000
O	0.90594400	3.56949000	0.37332000
O	4.71781400	3.56949000	0.37332000
O	0.90594400	0.60134000	1.26110000
O	4.71781400	0.60134000	1.26110000
O	2.81187400	5.84486000	1.26111000
O	2.81187400	2.06812000	1.83340000
O	0.90594400	7.31164000	1.83340000
O	4.71781400	7.31164000	1.83340000
O	0.90594400	4.34349000	2.72118000
O	4.71781400	4.34349000	2.72118000
O	2.81187400	9.58701000	2.72118000
Ti	6.62374588	0.19704000	1.10336000
Ti	21.87123776	0.19704000	1.10336000
Ti	8.52968588	5.44057000	1.10336000
Ti	23.77717776	5.44057000	1.10336000
Ti	8.52968588	2.47241000	1.99114000
Ti	23.77717776	2.47241000	1.99114000
Ti	6.62374588	7.71594000	1.99115000
Ti	21.87123776	7.71594000	1.99115000
Ti	10.43561588	0.19704000	1.10336000
Ti	25.68310776	0.19704000	1.10336000
Ti	14.24749588	0.19704000	1.10336000
Ti	29.49498776	0.19704000	1.10336000
Ti	18.05936588	0.19704000	1.10336000
Ti	12.34155588	5.44057000	1.10336000
Ti	27.58904776	5.44057000	1.10336000
Ti	16.15343588	5.44057000	1.10336000
Ti	19.96530588	5.44057000	1.10336000
Ti	12.34155588	2.47241000	1.99114000
Ti	27.58904776	2.47241000	1.99114000
Ti	16.15343588	2.47241000	1.99114000
Ti	19.96530588	2.47241000	1.99114000
Ti	10.43561588	7.71594000	1.99115000
Ti	25.68310776	7.71594000	1.99115000
Ti	14.24749588	7.71594000	1.99115000
Ti	29.49498776	7.71594000	1.99115000
Ti	18.05936588	7.71594000	1.99115000
O	6.62374588	8.81302000	0.37332000
O	21.87123776	8.81302000	0.37332000
O	8.52968588	3.56949000	0.37332000
O	23.77717776	3.56949000	0.37332000
O	8.52968588	0.60134000	1.26110000
O	23.77717776	0.60134000	1.26110000
O	6.62374588	5.84486000	1.26111000
O	21.87123776	5.84486000	1.26111000
O	6.62374588	2.06812000	1.83340000
O	21.87123776	2.06812000	1.83340000
O	8.52968588	7.31164000	1.83340000
O	23.77717776	7.31164000	1.83340000
O	8.52968588	4.34349000	2.72118000
O	23.77717776	4.34349000	2.72118000
O	6.62374588	9.58701000	2.72118000
O	21.87123776	9.58701000	2.72118000
O	10.43561588	8.81302000	0.37332000
O	25.68310776	8.81302000	0.37332000
O	14.24749588	8.81302000	0.37332000
O	29.49498776	8.81302000	0.37332000
O	18.05936588	8.81302000	0.37332000
O	12.34155588	3.56949000	0.37332000
O	27.58904776	3.56949000	0.37332000
O	16.15343588	3.56949000	0.37332000
O	19.96530588	3.56949000	0.37332000
O	12.34155588	0.60134000	1.26110000
O	27.58904776	0.60134000	1.26110000
O	16.15343588	0.60134000	1.26110000
O	19.96530588	0.60134000	1.26110000
O	10.43561588	5.84486000	1.26111000
O	25.68310776	5.84486000	1.26111000
O	14.24749588	5.84486000	1.26111000
O	29.49498776	5.84486000	1.26111000
O	18.05936588	5.84486000	1.26111000
O	10.43561588	2.06812000	1.83340000
O	25.68310776	2.06812000	1.83340000
O	14.24749588	2.06812000	1.83340000
O	29.49498776	2.06812000	1.83340000
O	18.05936588	2.06812000	1.83340000
O	12.34155588	7.31164000	1.83340000
O	27.58904776	7.31164000	1.83340000
O	16.15343588	7.31164000	1.83340000
O	19.96530588	7.31164000	1.83340000
O	12.34155588	4.34349000	2.72118000
O	27.58904776	4.34349000	2.72118000
O	16.15343588	4.34349000	2.72118000
O	19.96530588	4.34349000	2.72118000
O	10.43561588	9.58701000	2.72118000
O	25.68310776	9.58701000	2.72118000
O	14.24749588	9.58701000	2.72118000
O	29.49498776	9.58701000	2.72118000
O	18.05936588	9.58701000	2.72118000
Ti	2.81187400	10.68408607	1.10336000
Ti	2.81187400	21.17113214	1.10336000
Ti	0.90594400	15.92761607	1.10336000
Ti	0.90594400	26.41466214	1.10336000
Ti	4.71781400	15.92761607	1.10336000
Ti	4.71781400	26.41466214	1.10336000
Ti	0.90594400	12.95945607	1.99114000
Ti	0.90594400	23.44650214	1.99114000
Ti	4.71781400	12.95945607	1.99114000
Ti	4.71781400	23.44650214	1.99114000
Ti	2.81187400	18.20298607	1.99115000
Ti	2.81187400	28.69003214	1.99115000
O	2.81187400	19.30006607	0.37332000
O	2.81187400	29.78711214	0.37332000
O	0.90594400	14.05653607	0.37332000
O	0.90594400	24.54358214	0.37332000
O	4.71781400	14.05653607	0.37332000
O	4.71781400	24.54358214	0.37332000
O	0.90594400	11.08838607	1.26110000
O	0.90594400	21.57543214	1.26110000
O	4.71781400	11.08838607	1.26110000
O	4.71781400	21.57543214	1.26110000
O	2.81187400	16.33190607	1.26111000
O	2.81187400	26.81895214	1.26111000
O	2.81187400	12.55516607	1.83340000
O	2.81187400	23.04221214	1.83340000
O	0.90594400	17.79868607	1.83340000
O	0.90594400	28.28573214	1.83340000
O	4.71781400	17.79868607	1.83340000
O	4.71781400	28.28573214	1.83340000
O	0.90594400	14.83053607	2.72118000
O	0.90594400	25.31758214	2.72118000
O	4.71781400	14.83053607	2.72118000
O	4.71781400	25.31758214	2.72118000
O	2.81187400	20.07405607	2.72118000
O	2.81187400	30.56110214	2.72118000
Ti	6.62374588	10.68408607	1.10336000
Ti	6.62374588	21.17113214	1.10336000
Ti	21.87123776	10.68408607	1.10336000
Ti	21.87123776	21.17113214	1.10336000
Ti	8.52968588	15.92761607	1.10336000
Ti	8.52968588	26.41466214	1.10336000
Ti	23.77717776	15.92761607	1.10336000
Ti	23.77717776	26.41466214	1.10336000
Ti	8.52968588	12.95945607	1.99114000
Ti	8.52968588	23.44650214	1.99114000
Ti	23.77717776	12.95945607	1.99114000
Ti	23.77717776	23.44650214	1.99114000
Ti	6.62374588	18.20298607	1.99115000
Ti	6.62374588	28.69003214	1.99115000
Ti	21.87123776	18.20298607	1.99115000
Ti	21.87123776	28.69003214	1.99115000
Ti	10.43561588	10.68408607	1.10336000
Ti	10.43561588	21.17113214	1.10336000
Ti	25.68310776	10.68408607	1.10336000
Ti	25.68310776	21.17113214	1.10336000
Ti	14.24749588	10.68408607	1.10336000
Ti	14.24749588	21.17113214	1.10336000
Ti	29.49498776	10.68408607	1.10336000
Ti	29.49498776	21.17113214	1.10336000
Ti	18.05936588	10.68408607	1.10336000
Ti	18.05936588	21.17113214	1.10336000
Ti	12.34155588	15.92761607	1.10336000
Ti	12.34155588	26.41466214	1.10336000
Ti	27.58904776	15.92761607	1.10336000
Ti	27.58904776	26.41466214	1.10336000
Ti	16.15343588	15.92761607	1.10336000
Ti	16.15343588	26.41466214	1.10336000
Ti	19.96530588	15.92761607	1.10336000
Ti	19.96530588	26.41466214	1.10336000
Ti	12.34155588	12.95945607	1.99114000
Ti	12.34155588	23.44650214	1.99114000
Ti	27.58904776	12.95945607	1.99114000
Ti	27.58904776	23.44650214	1.99114000
Ti	16.15343588	12.95945607	1.99114000
Ti	16.15343588	23.44650214	1.99114000
Ti	19.96530588	12.95945607	1.99114000
Ti	19.96530588	23.44650214	1.99114000
Ti	10.43561588	18.20298607	1.99115000
Ti	10.43561588	28.69003214	1.99115000
Ti	25.68310776	18.20298607	1.99115000
Ti	25.68310776	28.69003214	1.99115000
Ti	14.24749588	18.20298607	1.99115000
Ti	14.24749588	28.69003214	1.99115000
Ti	29.49498776	18.20298607	1.99115000
Ti	29.49498776	28.69003214	1.99115000
Ti	18.05936588	18.20298607	1.99115000
Ti	18.05936588	28.69003214	1.99115000
O	6.62374588	19.30006607	0.37332000
O	6.62374588	29.78711214	0.37332000
O	21.87123776	19.30006607	0.37332000
O	21.87123776	29.78711214	0.37332000
O	8.52968588	14.05653607	0.37332000
O	8.52968588	24.54358214	0.37332000
O	23.77717776	14.05653607	0.37332000
O	23.77717776	24.54358214	0.37332000
O	8.52968588	11.08838607	1.26110000
O	8.52968588	21.57543214	1.26110000
O	23.77717776	11.08838607	1.26110000
O	23.77717776	21.57543214	1.26110000
O	6.62374588	16.33190607	1.26111000
O	6.62374588	26.81895214	1.26111000
O	21.87123776	16.33190607	1.26111000
O	21.87123776	26.81895214	1.26111000
O	6.62374588	12.55516607	1.83340000
O	6.62374588	23.04221214	1.83340000
O	21.87123776	12.55516607	1.83340000
O	21.87123776	23.04221214	1.83340000
O	8.52968588	17.79868607	1.83340000
O	8.52968588	28.28573214	1.83340000
O	23.77717776	17.79868607	1.83340000
O	23.77717776	28.28573214	1.83340000
O	8.52968588	14.83053607	2.72118000
O	8.52968588	25.31758214	2.72118000
O	23.77717776	14.83053607	2.72118000
O	23.77717776	25.31758214	2.72118000
O	6.62374588	20.07405607	2.72118000
O	6.62374588	30.56110214	2.72118000
O	21.87123776	20.07405607	2.72118000
O	21.87123776	30.56110214	2.72118000
O	10.43561588	19.30006607	0.37332000
O	10.43561588	29.78711214	0.37332000
O	25.68310776	19.30006607	0.37332000
O	25.68310776	29.78711214	0.37332000
O	14.24749588	19.30006607	0.37332000
O	14.24749588	29.78711214	0.37332000
O	29.49498776	19.30006607	0.37332000
O	29.49498776	29.78711214	0.37332000
O	18.05936588	19.30006607	0.37332000
O	18.05936588	29.78711214	0.37332000
O	12.34155588	14.05653607	0.37332000
O	12.34155588	24.54358214	0.37332000
O	27.58904776	14.05653607	0.37332000
O	27.58904776	24.54358214	0.37332000
O	16.15343588	14.05653607	0.37332000
O	16.15343588	24.54358214	0.37332000
O	19.96530588	14.05653607	0.37332000
O	19.96530588	24.54358214	0.37332000
O	12.34155588	11.08838607	1.26110000
O	12.34155588	21.57543214	1.26110000
O	27.58904776	11.08838607	1.26110000
O	27.58904776	21.57543214	1.26110000
O	16.15343588	11.08838607	1.26110000
O	16.15343588	21.57543214	1.26110000
O	19.96530588	11.08838607	1.26110000
O	19.96530588	21.57543214	1.26110000
O	10.43561588	16.33190607	1.26111000
O	10.43561588	26.81895214	1.26111000
O	25.68310776	16.33190607	1.26111000
O	25.68310776	26.81895214	1.26111000
O	14.24749588	16.33190607	1.26111000
O	14.24749588	26.81895214	1.26111000
O	29.49498776	16.33190607	1.26111000
O	29.49498776	26.81895214	1.26111000
O	18.05936588	16.33190607	1.26111000
O	18.05936588	26.81895214	1.26111000
O	10.43561588	12.55516607	1.83340000
O	10.43561588	23.04221214	1.83340000
O	25.68310776	12.55516607	1.83340000
O	25.68310776	23.04221214	1.83340000
O	14.24749588	12.55516607	1.83340000
O	14.24749588	23.04221214	1.83340000
O	29.49498776	12.55516607	1.83340000
O	29.49498776	23.04221214	1.83340000
O	18.05936588	12.55516607	1.83340000
O	18.05936588	23.04221214	1.83340000
O	12.34155588	17.79868607	1.83340000
O	12.34155588	28.28573214	1.83340000
O	27.58904776	17.79868607	1.83340000
O	27.58904776	28.28573214	1.83340000
O	16.15343588	17.79868607	1.83340000
O	16.15343588	28.28573214	1.83340000
O	19.96530588	17.79868607	1.83340000
O	19.96530588	28.28573214	1.83340000
O	12.34155588	14.83053607	2.72118000
O	12.34155588	25.31758214	2.72118000
O	27.58904776	14.83053607	2.72118000
O	27.58904776	25.31758214	2.72118000
O	16.15343588	14.83053607	2.72118000
O	16.15343588	25.31758214	2.72118000
O	19.96530588	14.83053607	2.72118000
O	19.96530588	25.31758214	2.72118000
O	10.43561588	20.07405607	2.72118000
O	10.43561588	30.56110214	2.72118000
O	25.68310776	20.07405607	2.72118000
O	25.68310776	30.56110214	2.72118000
O	14.24749588	20.07405607	2.72118000
O	14.24749588	30.56110214	2.72118000
O	29.49498776	20.07405607	2.72118000
O	29.49498776	30.56110214	2.72118000
O	18.05936588	20.07405607	2.72118000
O	18.05936588	30.56110214	2.72118000
Ti	6.55566789	9.15726684	4.69984304
Ti	6.63467003	6.25589712	5.56670118
Ti	2.75934689	9.14788753	4.78714546
Ti	1.03773734	4.02483607	4.68724203
Ti	4.95984667	3.85774430	4.92293082
Ti	0.80034780	1.17680458	5.49936223
Ti	4.62688152	0.98910448	5.59781045
Ti	2.96076899	6.21236344	5.51159767
O	6.63691386	7.36039907	4.05692272
O	6.77077786	4.35527581	4.70446148
O	6.60481145	0.52631041	5.64742322
O	6.58583780	8.07434782	6.39263110
O	2.89319950	7.33805362	3.88059479
O	0.85982244	2.06524983	3.92667276
O	4.73725042	2.05558638	4.03008182
O	0.79985358	9.55369766	4.85231281
O	4.72242429	9.68333285	4.78832065
O	2.95637317	4.35429738	4.69520639
O	2.67804888	0.51465721	5.75356532
O	0.99915230	5.88773114	5.63102256
O	4.88319371	5.70919703	6.02132534
O	0.82868131	2.91208150	6.27308768
O	5.00773230	2.65736069	6.51973142
O	2.92114732	7.98072545	6.36034551
Ti	21.98066316	9.29813150	4.64341418
Ti	8.72725217	3.88329104	4.82425267
Ti	23.70963214	3.95255102	4.79270343
Ti	8.58867051	0.96000979	5.44414700
Ti	23.73664457	0.98311377	5.52089213
Ti	21.84688479	6.38198345	5.53759637
Ti	10.44477557	9.27224502	4.75843203
Ti	25.68816011	9.19933362	4.77022138
Ti	14.16217434	9.24864536	4.73238097
Ti	29.43442335	9.15491803	4.68012724
Ti	18.06501598	9.26134087	4.70319135
Ti	12.48266111	4.04134407	4.68980522
Ti	27.64106857	3.94991549	4.81567623
Ti	16.19019584	3.93834631	4.77883217
Ti	19.90643721	4.07983584	4.69729465
Ti	12.46952852	1.04015096	5.48346336
Ti	27.49836915	1.10297567	5.58019491
Ti	16.26114479	1.00536717	5.49736344
Ti	20.02584454	1.12599051	5.54657426
Ti	10.51225736	6.32560605	5.47966454
Ti	25.65133842	6.26779976	5.40763355
Ti	14.33200459	6.37147433	5.45444734
Ti	29.55392209	6.30493741	5.51042409
Ti	17.94091214	6.39580891	5.45573554
O	21.85206857	7.40075961	3.94511231
O	8.61085872	2.13367828	3.95867958
O	23.82086376	2.04148464	3.94455975
O	8.48632868	9.68141257	4.94709592
O	23.84710034	9.53196788	4.86164826
O	21.79823274	4.39668957	4.98432551
O	21.84851396	0.61283443	5.89002671
O	8.66633931	5.69912759	5.73114008
O	23.79084208	5.88340818	5.57801698
O	8.37736466	2.61797462	6.37508491
O	23.73099373	2.84833833	6.43500051
O	21.77145526	8.14570887	6.30580213
O	10.32281645	7.28478031	3.89540781
O	25.63683822	7.39620806	3.90503383
O	14.42587891	7.48001788	3.88440917
O	29.50310161	7.30645792	3.92921816
O	17.97778618	7.45023204	3.88522633
O	12.33252949	2.15726331	3.95838539
O	27.41229255	2.12674720	3.98104415
O	16.36272002	2.02247450	3.95330915
O	20.22032982	2.15360200	3.92009570
O	12.29178701	9.77713961	4.84788329
O	27.57588934	9.76137944	4.81129983
O	16.11101592	9.69410547	4.64409886
O	19.98029802	9.75221494	4.65096944
O	10.61644703	4.25842798	4.94782029
O	25.66974395	4.31822532	4.89472723
O	14.37105378	4.43793618	4.68528119
O	29.59563282	4.46474445	4.70269012
O	18.04059579	4.48010012	4.79840524
O	10.55136126	0.61561923	5.77163690
O	25.60775937	0.54392440	5.93584954
O	14.38207201	0.61230257	5.60299934
O	29.43322364	0.72900550	5.85743922
O	18.14437320	0.60988933	5.70332608
O	12.43327123	5.84708372	5.59629773
O	27.60908041	5.81822191	5.55181252
O	16.22420646	5.86841476	5.86452135
O	19.86973277	5.91469046	5.69593742
O	12.82088760	2.88890001	6.28810801
O	27.79428017	2.79367975	6.44167835
O	16.29334436	2.70495156	6.35003055
O	19.97083646	2.83539033	6.38532115
O	10.46690074	8.07649968	6.29112626
O	25.81927761	7.99450630	6.36081281
O	14.23751642	8.11374306	6.24985573
O	29.47774500	8.08230077	6.24383649
O	17.96130318	8.17962410	6.30821165
Ti	6.52930248	19.68265136	4.79433743
Ti	6.50223146	30.12371880	4.85916626
Ti	6.43424922	16.77917022	5.56178142
Ti	6.59123169	27.19160024	5.52115660
Ti	2.79958160	19.74428766	4.79905754
Ti	2.74246221	30.15706814	4.69290242
Ti	0.90123853	14.30154027	4.72406819
Ti	0.84541427	24.89887896	4.70966681
Ti	4.63705937	14.47588629	4.81909944
Ti	4.68132555	24.89420631	4.75721295
Ti	0.83937595	11.44007975	5.52998430
Ti	0.91845028	22.01486098	5.56221642
Ti	4.68857571	11.53073841	5.49049850
Ti	4.70817312	21.99145403	5.48998250
Ti	2.79893312	16.88949686	5.65198370
Ti	2.78331260	27.16358891	5.44429341
O	6.50823416	17.74066138	3.92989470
O	6.54290601	28.26400302	3.93443864
O	6.44662185	14.82671793	4.82342143
O	6.62474569	25.28854019	4.76691955
O	6.59765741	10.97732310	5.74740162
O	6.64009903	21.56076049	5.85002669
O	6.55756347	18.61764752	6.33656434
O	6.63455379	28.95974886	6.33015475
O	2.92841703	17.88481152	4.01365261
O	2.58874971	28.24158377	3.95081044
O	0.95648807	12.47434298	3.88393235
O	0.99922742	23.04396485	3.96391912
O	4.79167186	12.69909681	4.02617544
O	4.56235510	23.05151550	3.92181778
O	0.89497167	20.11959396	4.86302980
O	0.79244098	30.58895567	4.89360590
O	4.66521867	20.25407857	4.53788923
O	4.58024836	30.59471951	4.95142947
O	2.68494233	14.98606594	4.92899989
O	2.73969357	25.24181668	4.79892476
O	2.78884395	11.01795664	5.66991981
O	2.84913455	21.45309164	5.87107524
O	0.97006587	16.73855863	6.25645990
O	0.90179024	26.77621149	5.60568002
O	4.66840263	16.17183937	6.00716801
O	4.63362663	26.62239123	5.70104546
O	0.89857794	13.26957982	6.29693529
O	0.72390733	23.72124100	6.43501612
O	4.58135806	13.19969561	6.40515284
O	4.63968642	23.79710294	6.43662452
O	3.08526811	18.65539819	6.35647467
O	2.76079513	28.96273657	6.33433866
Ti	21.81452080	19.71015265	4.65028136
Ti	21.88674613	30.22976569	4.78218625
Ti	8.41940394	14.52704805	4.72317384
Ti	8.51342460	24.93558984	4.62541213
Ti	23.78338476	14.47621924	4.72622906
Ti	23.73463387	24.98865237	4.67372277
Ti	8.44340093	11.62463444	5.45089631
Ti	8.53470555	22.04741718	5.53940365
Ti	23.80038131	11.59554726	5.51910936
Ti	23.72331475	22.04031696	5.60816401
Ti	21.81292481	16.79874460	5.49147379
Ti	21.86421013	27.35767466	5.54124257
Ti	10.35285598	19.75211104	4.84561812
Ti	10.43055741	30.15281130	4.77820257
Ti	25.70745095	19.78308509	4.80167090
Ti	25.63520613	30.18713781	4.85338438
Ti	14.17696919	19.67822748	4.78850408
Ti	14.23480730	30.16780805	4.71894373
Ti	29.47777289	19.79996542	4.70654412
Ti	29.41195507	30.27564922	5.04080913
Ti	18.04249186	19.81114797	4.70878976
Ti	18.11303559	30.12905663	4.76358338
Ti	12.29820988	14.63124904	4.69827215
Ti	12.26117137	24.92517495	4.63114829
Ti	27.67973688	14.58368663	4.77816363
Ti	27.62906258	24.93444173	4.80650313
Ti	16.08535030	14.55316255	4.76229453
Ti	16.15148151	24.94925848	4.75121917
Ti	19.99597033	14.46555500	4.76256749
Ti	19.97613810	24.96832373	4.78648884
Ti	12.28522417	11.67786042	5.48095708
Ti	12.31609932	22.00109779	5.56700911
Ti	27.50177454	11.66983528	5.42243840
Ti	27.50361118	22.15436036	5.63221596
Ti	16.13170884	11.62441978	5.50373422
Ti	16.06754434	22.03254193	5.45014156
Ti	19.87504432	11.54977272	5.46781022
Ti	20.01357035	22.00900883	5.52880897
Ti	10.27162684	16.92811890	5.51386077
Ti	10.40618519	27.26873650	5.52253564
Ti	25.64247477	16.84344052	5.54254126
Ti	25.64377589	27.23172655	5.49749919
Ti	14.26692899	16.85571696	5.79832808
Ti	14.10347423	27.17687802	5.41492634
Ti	29.56435905	16.90336138	5.61704640
Ti	29.58904388	27.32228154	5.54145238
Ti	18.02483991	16.93298386	5.53586984
Ti	18.09595401	27.21419116	5.65471166
O	21.70964829	17.84295997	3.92233661
O	21.98571264	28.39408830	3.94065756
O	8.54184137	12.52534406	3.84404351
O	8.48493329	23.10161675	3.97006909
O	23.85069695	12.67173398	3.99435306
O	23.54734756	23.02039807	3.94215562
O	8.43798732	20.14304880	4.77357219
O	8.53190730	30.58673804	4.63654730
O	23.69910925	20.10010852	4.93435388
O	23.79137620	30.74467181	4.69787282
O	21.88421670	14.91833058	4.78842335
O	21.81239711	25.64433041	4.61901746
O	21.85717326	11.09810850	5.71273699
O	21.83372280	21.45410331	5.90652450
O	8.41258948	16.25126442	5.86314006
O	8.50684051	26.79624422	5.87366173
O	23.77081578	16.29574089	5.86256269
O	23.80259362	26.88090009	5.54522400
O	8.45287025	13.24758690	6.44566342
O	8.77066684	23.72793997	6.59516083
O	23.79539798	13.37626312	6.39596592
O	23.58166729	23.88302828	6.41006984
O	21.62374473	18.56688631	6.42796307
O	21.76029503	29.03817626	6.31814792
O	10.40860503	17.92592545	3.93667921
O	10.34148704	28.33667925	3.94547312
O	25.50193349	17.86136308	4.06709904
O	25.86326722	28.42998119	3.91976227
O	14.43400141	17.91781087	4.02170230
O	14.18900722	28.33528055	3.91289517
O	29.52529005	17.88671151	3.98838818
O	29.39175583	28.44029817	4.02456284
O	18.22647234	17.78683324	3.94152327
O	18.09946429	28.19178597	3.93824728
O	12.06119030	12.61925190	3.94354333
O	12.41546348	22.94951186	3.95034367
O	27.48107022	12.76265746	3.98017959
O	27.49224692	23.18023271	3.97915953
O	16.10281567	12.67356452	3.94728381
O	16.14370634	23.11028186	3.92778930
O	20.04423100	12.65950149	3.93219750
O	20.04493652	22.99747505	3.90488583
O	12.22117215	20.15529200	4.76131032
O	12.38027835	30.57832707	4.70953212
O	27.52350552	20.31640792	4.55553047
O	27.50429395	30.63358566	4.86122024
O	16.10584967	20.28442915	4.70860323
O	16.19903527	30.57474942	4.79194150
O	19.99466156	20.17875585	4.76102248
O	20.07279104	30.65109467	4.51868268
O	10.38980638	15.01060556	4.81620166
O	10.33461133	25.44822545	4.70663643
O	25.72858909	14.97836304	4.92022532
O	25.61903807	25.29244062	4.80579999
O	14.21099133	15.13716524	4.69297617
O	14.17515694	25.33654090	4.82002400
O	29.67534148	15.09133708	4.83586564
O	29.50389827	25.34158833	4.81536035
O	18.00125931	14.99059131	4.74601274
O	18.09285181	25.37122011	4.73203696
O	10.41133585	11.09759443	5.73501014
O	10.33976214	21.36033912	5.94949619
O	25.64549619	11.04996484	5.60876971
O	25.60481517	21.44749429	5.90063040
O	14.19707628	11.11013273	5.74059702
O	14.21463738	21.64592135	5.74500114
O	29.44222867	11.14931794	5.64330071
O	29.40691735	21.46811790	5.79944188
O	17.97471629	10.95766415	5.76349627
O	17.99247356	21.49850772	5.76266966
O	12.25246729	16.49409997	5.62525253
O	12.26322272	26.73941742	5.75482257
O	27.63672712	16.45434132	5.60650831
O	27.47701299	26.77591389	5.76191843
O	16.17481206	16.42112962	5.78622732
O	16.17285289	26.87814719	5.72003235
O	19.98442382	16.33653562	5.86299169
O	19.98374269	26.74470815	5.98291115
O	12.56652614	13.43266865	6.21534716
O	12.45117855	23.75940271	6.33913945
O	27.79279272	13.37578460	6.30971153
O	27.66966562	23.81388941	6.41806811
O	15.98256786	13.30928316	6.41385767
O	16.24006646	23.86915970	6.42831398
O	20.06201064	13.37520772	6.33322947
O	19.92414636	23.79439026	6.38374781
O	10.34794139	18.57716626	6.42286376
O	10.37335119	29.04762107	6.36110659
O	25.75389471	18.57560694	6.45813553
O	25.35644969	28.95669487	6.31958968
O	14.04027908	18.63391086	6.36389659
O	14.03394381	28.95832320	6.30997767
O	29.38223967	18.62814452	6.42025567
O	29.41515476	28.97591317	6.46300772
O	17.91302069	18.71041618	6.30375721
O	18.19399169	28.98786117	6.39170149
H	13.13207459	14.08452550	7.88755573
H	13.19866363	14.99747776	11.22242741
H	14.44991040	18.42169072	8.82047020
O	14.15664195	15.94745102	7.51799132
O	13.19118195	14.42802838	8.82867874
C	13.71915682	15.60612506	8.74105207
C	13.85534927	16.51377436	9.84630965
C	13.59283835	16.00448368	11.13339753
C	14.23816853	17.87838817	9.73223156
N	13.04984884	19.63038102	15.44506329
N	15.70754853	22.32546622	16.87626598
N	15.35192636	20.89385703	14.32126205
N	13.45786141	21.14415015	18.02235204
C	20.55751407	23.31369695	13.39584392
C	16.40178643	22.94314903	22.56371047
C	8.19928688	19.13657900	19.06371057
C	18.24135675	23.35449927	14.16595758
C	15.21916737	23.30200209	20.51507283
C	10.38458162	18.98930697	18.06544102
C	19.10674504	25.23975323	12.89403719
C	14.68697573	24.60866288	22.51681800
C	9.27972158	16.95158062	18.72579741
C	13.95456652	19.13152800	13.25181172
C	17.10863657	22.60541644	14.83646335
C	14.85833523	22.80447431	19.16667556
C	11.57905332	19.61837215	17.47329056
C	15.14253853	19.92620915	13.39486906
C	16.61514196	21.48542799	14.11997053
C	13.86185613	21.79972800	19.17481391
C	12.35076232	20.41637988	18.32328842
C	16.26576580	19.87975558	12.50004197
C	17.13385651	20.85457550	12.91523367
C	13.02707615	21.41895865	20.28991528
C	12.12898739	20.52739449	19.73974891
C	12.93186597	19.00067807	14.19059569
C	16.73476976	22.93652019	16.16807048
C	15.78729238	22.89901697	18.13649085
C	11.84790112	19.43794768	16.12001496
C	11.72505588	18.24332717	14.15379590
C	17.44634356	23.93372970	16.97916010
C	16.84859413	23.90700187	18.20203793
C	11.01561211	18.61188258	15.29713257
H	11.34745406	17.55640578	13.33540674
H	18.40972708	24.42928683	16.65087402
H	17.05472910	24.48610900	19.08775155
H	10.11604462	18.16826102	15.70714789
H	16.37272991	19.11515343	11.74578361
H	18.12951621	21.00978985	12.53148564
H	13.03423655	21.68808885	21.30840437
H	11.31950289	20.04329329	20.26421192
H	19.03191112	26.25977372	12.54975872
H	14.09182391	25.38579401	23.01123339
H	9.22286518	15.78315668	18.80877570
H	21.58552883	22.88877197	13.54298587
H	17.14377566	22.35452107	23.01259135
H	7.34781968	19.71438435	19.31613350
H	14.86723523	20.97621618	15.22075250
H	13.87611370	21.34419729	17.11147124
C	21.49824680	25.34226851	12.17733391
H	21.76636248	24.94386749	11.23604852
H	22.44142617	25.40669893	12.81185904
H	21.19938028	26.41736776	12.16308885
C	19.76155068	21.58312055	15.04460038
H	19.25359466	20.67733475	14.74054608
H	19.50525523	21.81914682	16.05808978
H	20.84015617	21.27127302	14.97503750
C	16.82306891	25.41288598	13.68260211
H	17.04299435	26.46698545	13.84994948
H	16.12442081	25.15914690	14.48457145
H	16.20332271	25.37684383	12.75485643
C	11.59745782	16.76719818	17.75933139
H	11.72745507	15.92543437	18.44270750
H	12.43381857	17.45526274	17.82908878
H	11.35463321	16.49561557	16.71325093
C	9.34856545	21.27319093	18.33830199
H	10.31199928	21.63581412	18.73102257
H	8.55527770	21.75280594	18.88160852
H	9.24410131	21.53302420	17.26395882
C	6.95805361	17.07459268	19.61077661
H	6.26535742	17.77520910	20.11686905
H	7.23199584	16.32774758	20.37586214
H	6.38432219	16.50955992	18.83374908
C	13.54577033	25.28371745	20.46996484
H	14.22988766	26.16059552	20.15823188
H	12.81805640	25.74846144	21.20237921
H	13.05858473	24.85564589	19.54090416
C	16.95340737	21.46265180	20.68772236
H	17.47517134	21.75211017	19.74634752
H	16.30058924	20.64056629	20.46422736
H	17.78255920	21.16285373	21.31743028
C	15.95505424	24.25481216	24.68855705
H	16.08977355	23.31463313	25.25545581
H	15.12712544	24.79191325	25.21278980
H	16.87111654	24.89259938	24.66572124
C	20.38399534	24.56258635	12.78482209
C	19.51983952	22.74787123	14.13729193
C	18.07469308	24.59307782	13.56424963
C	14.44371380	24.29061663	21.12845220
C	16.20055269	22.59074009	21.25480778
C	15.62564060	23.94804113	23.26762813
C	10.40745234	17.59321569	18.22441250
C	9.29064185	19.79758486	18.48383585
C	8.19851369	17.74777433	19.12416579
H	13.40257729	16.41261633	13.26115990
H	14.36471808	19.75117575	10.65228532
C	13.94079714	18.18151401	12.14632794
C	13.57302210	16.82288545	12.26628501
C	14.27583641	18.68987335	10.86164143

Ti O H C N 0
6-31G*
****

