%chk=f00015434.chk
%mem=24GB
%nproc=12
#p b3lyp/6-31G*

title

0 1
Ti	2.81187400	0.19704000	1.10336000
Ti	0.90594400	5.44057000	1.10336000
Ti	4.71781400	5.44057000	1.10336000
Ti	0.90594400	2.47241000	1.99114000
Ti	4.71781400	2.47241000	1.99114000
Ti	2.81187400	7.71594000	1.99115000
O	2.81187400	8.81302000	0.37332000
O	0.90594400	3.56949000	0.37332000
O	4.71781400	3.56949000	0.37332000
O	0.90594400	0.60134000	1.26110000
O	4.71781400	0.60134000	1.26110000
O	2.81187400	5.84486000	1.26111000
O	2.81187400	2.06812000	1.83340000
O	0.90594400	7.31164000	1.83340000
O	4.71781400	7.31164000	1.83340000
O	0.90594400	4.34349000	2.72118000
O	4.71781400	4.34349000	2.72118000
O	2.81187400	9.58701000	2.72118000
Ti	6.62374588	0.19704000	1.10336000
Ti	21.87123776	0.19704000	1.10336000
Ti	8.52968588	5.44057000	1.10336000
Ti	23.77717776	5.44057000	1.10336000
Ti	8.52968588	2.47241000	1.99114000
Ti	23.77717776	2.47241000	1.99114000
Ti	6.62374588	7.71594000	1.99115000
Ti	21.87123776	7.71594000	1.99115000
Ti	10.43561588	0.19704000	1.10336000
Ti	25.68310776	0.19704000	1.10336000
Ti	14.24749588	0.19704000	1.10336000
Ti	29.49498776	0.19704000	1.10336000
Ti	18.05936588	0.19704000	1.10336000
Ti	12.34155588	5.44057000	1.10336000
Ti	27.58904776	5.44057000	1.10336000
Ti	16.15343588	5.44057000	1.10336000
Ti	19.96530588	5.44057000	1.10336000
Ti	12.34155588	2.47241000	1.99114000
Ti	27.58904776	2.47241000	1.99114000
Ti	16.15343588	2.47241000	1.99114000
Ti	19.96530588	2.47241000	1.99114000
Ti	10.43561588	7.71594000	1.99115000
Ti	25.68310776	7.71594000	1.99115000
Ti	14.24749588	7.71594000	1.99115000
Ti	29.49498776	7.71594000	1.99115000
Ti	18.05936588	7.71594000	1.99115000
O	6.62374588	8.81302000	0.37332000
O	21.87123776	8.81302000	0.37332000
O	8.52968588	3.56949000	0.37332000
O	23.77717776	3.56949000	0.37332000
O	8.52968588	0.60134000	1.26110000
O	23.77717776	0.60134000	1.26110000
O	6.62374588	5.84486000	1.26111000
O	21.87123776	5.84486000	1.26111000
O	6.62374588	2.06812000	1.83340000
O	21.87123776	2.06812000	1.83340000
O	8.52968588	7.31164000	1.83340000
O	23.77717776	7.31164000	1.83340000
O	8.52968588	4.34349000	2.72118000
O	23.77717776	4.34349000	2.72118000
O	6.62374588	9.58701000	2.72118000
O	21.87123776	9.58701000	2.72118000
O	10.43561588	8.81302000	0.37332000
O	25.68310776	8.81302000	0.37332000
O	14.24749588	8.81302000	0.37332000
O	29.49498776	8.81302000	0.37332000
O	18.05936588	8.81302000	0.37332000
O	12.34155588	3.56949000	0.37332000
O	27.58904776	3.56949000	0.37332000
O	16.15343588	3.56949000	0.37332000
O	19.96530588	3.56949000	0.37332000
O	12.34155588	0.60134000	1.26110000
O	27.58904776	0.60134000	1.26110000
O	16.15343588	0.60134000	1.26110000
O	19.96530588	0.60134000	1.26110000
O	10.43561588	5.84486000	1.26111000
O	25.68310776	5.84486000	1.26111000
O	14.24749588	5.84486000	1.26111000
O	29.49498776	5.84486000	1.26111000
O	18.05936588	5.84486000	1.26111000
O	10.43561588	2.06812000	1.83340000
O	25.68310776	2.06812000	1.83340000
O	14.24749588	2.06812000	1.83340000
O	29.49498776	2.06812000	1.83340000
O	18.05936588	2.06812000	1.83340000
O	12.34155588	7.31164000	1.83340000
O	27.58904776	7.31164000	1.83340000
O	16.15343588	7.31164000	1.83340000
O	19.96530588	7.31164000	1.83340000
O	12.34155588	4.34349000	2.72118000
O	27.58904776	4.34349000	2.72118000
O	16.15343588	4.34349000	2.72118000
O	19.96530588	4.34349000	2.72118000
O	10.43561588	9.58701000	2.72118000
O	25.68310776	9.58701000	2.72118000
O	14.24749588	9.58701000	2.72118000
O	29.49498776	9.58701000	2.72118000
O	18.05936588	9.58701000	2.72118000
Ti	2.81187400	10.68408607	1.10336000
Ti	2.81187400	21.17113214	1.10336000
Ti	0.90594400	15.92761607	1.10336000
Ti	0.90594400	26.41466214	1.10336000
Ti	4.71781400	15.92761607	1.10336000
Ti	4.71781400	26.41466214	1.10336000
Ti	0.90594400	12.95945607	1.99114000
Ti	0.90594400	23.44650214	1.99114000
Ti	4.71781400	12.95945607	1.99114000
Ti	4.71781400	23.44650214	1.99114000
Ti	2.81187400	18.20298607	1.99115000
Ti	2.81187400	28.69003214	1.99115000
O	2.81187400	19.30006607	0.37332000
O	2.81187400	29.78711214	0.37332000
O	0.90594400	14.05653607	0.37332000
O	0.90594400	24.54358214	0.37332000
O	4.71781400	14.05653607	0.37332000
O	4.71781400	24.54358214	0.37332000
O	0.90594400	11.08838607	1.26110000
O	0.90594400	21.57543214	1.26110000
O	4.71781400	11.08838607	1.26110000
O	4.71781400	21.57543214	1.26110000
O	2.81187400	16.33190607	1.26111000
O	2.81187400	26.81895214	1.26111000
O	2.81187400	12.55516607	1.83340000
O	2.81187400	23.04221214	1.83340000
O	0.90594400	17.79868607	1.83340000
O	0.90594400	28.28573214	1.83340000
O	4.71781400	17.79868607	1.83340000
O	4.71781400	28.28573214	1.83340000
O	0.90594400	14.83053607	2.72118000
O	0.90594400	25.31758214	2.72118000
O	4.71781400	14.83053607	2.72118000
O	4.71781400	25.31758214	2.72118000
O	2.81187400	20.07405607	2.72118000
O	2.81187400	30.56110214	2.72118000
Ti	6.62374588	10.68408607	1.10336000
Ti	6.62374588	21.17113214	1.10336000
Ti	21.87123776	10.68408607	1.10336000
Ti	21.87123776	21.17113214	1.10336000
Ti	8.52968588	15.92761607	1.10336000
Ti	8.52968588	26.41466214	1.10336000
Ti	23.77717776	15.92761607	1.10336000
Ti	23.77717776	26.41466214	1.10336000
Ti	8.52968588	12.95945607	1.99114000
Ti	8.52968588	23.44650214	1.99114000
Ti	23.77717776	12.95945607	1.99114000
Ti	23.77717776	23.44650214	1.99114000
Ti	6.62374588	18.20298607	1.99115000
Ti	6.62374588	28.69003214	1.99115000
Ti	21.87123776	18.20298607	1.99115000
Ti	21.87123776	28.69003214	1.99115000
Ti	10.43561588	10.68408607	1.10336000
Ti	10.43561588	21.17113214	1.10336000
Ti	25.68310776	10.68408607	1.10336000
Ti	25.68310776	21.17113214	1.10336000
Ti	14.24749588	10.68408607	1.10336000
Ti	14.24749588	21.17113214	1.10336000
Ti	29.49498776	10.68408607	1.10336000
Ti	29.49498776	21.17113214	1.10336000
Ti	18.05936588	10.68408607	1.10336000
Ti	18.05936588	21.17113214	1.10336000
Ti	12.34155588	15.92761607	1.10336000
Ti	12.34155588	26.41466214	1.10336000
Ti	27.58904776	15.92761607	1.10336000
Ti	27.58904776	26.41466214	1.10336000
Ti	16.15343588	15.92761607	1.10336000
Ti	16.15343588	26.41466214	1.10336000
Ti	19.96530588	15.92761607	1.10336000
Ti	19.96530588	26.41466214	1.10336000
Ti	12.34155588	12.95945607	1.99114000
Ti	12.34155588	23.44650214	1.99114000
Ti	27.58904776	12.95945607	1.99114000
Ti	27.58904776	23.44650214	1.99114000
Ti	16.15343588	12.95945607	1.99114000
Ti	16.15343588	23.44650214	1.99114000
Ti	19.96530588	12.95945607	1.99114000
Ti	19.96530588	23.44650214	1.99114000
Ti	10.43561588	18.20298607	1.99115000
Ti	10.43561588	28.69003214	1.99115000
Ti	25.68310776	18.20298607	1.99115000
Ti	25.68310776	28.69003214	1.99115000
Ti	14.24749588	18.20298607	1.99115000
Ti	14.24749588	28.69003214	1.99115000
Ti	29.49498776	18.20298607	1.99115000
Ti	29.49498776	28.69003214	1.99115000
Ti	18.05936588	18.20298607	1.99115000
Ti	18.05936588	28.69003214	1.99115000
O	6.62374588	19.30006607	0.37332000
O	6.62374588	29.78711214	0.37332000
O	21.87123776	19.30006607	0.37332000
O	21.87123776	29.78711214	0.37332000
O	8.52968588	14.05653607	0.37332000
O	8.52968588	24.54358214	0.37332000
O	23.77717776	14.05653607	0.37332000
O	23.77717776	24.54358214	0.37332000
O	8.52968588	11.08838607	1.26110000
O	8.52968588	21.57543214	1.26110000
O	23.77717776	11.08838607	1.26110000
O	23.77717776	21.57543214	1.26110000
O	6.62374588	16.33190607	1.26111000
O	6.62374588	26.81895214	1.26111000
O	21.87123776	16.33190607	1.26111000
O	21.87123776	26.81895214	1.26111000
O	6.62374588	12.55516607	1.83340000
O	6.62374588	23.04221214	1.83340000
O	21.87123776	12.55516607	1.83340000
O	21.87123776	23.04221214	1.83340000
O	8.52968588	17.79868607	1.83340000
O	8.52968588	28.28573214	1.83340000
O	23.77717776	17.79868607	1.83340000
O	23.77717776	28.28573214	1.83340000
O	8.52968588	14.83053607	2.72118000
O	8.52968588	25.31758214	2.72118000
O	23.77717776	14.83053607	2.72118000
O	23.77717776	25.31758214	2.72118000
O	6.62374588	20.07405607	2.72118000
O	6.62374588	30.56110214	2.72118000
O	21.87123776	20.07405607	2.72118000
O	21.87123776	30.56110214	2.72118000
O	10.43561588	19.30006607	0.37332000
O	10.43561588	29.78711214	0.37332000
O	25.68310776	19.30006607	0.37332000
O	25.68310776	29.78711214	0.37332000
O	14.24749588	19.30006607	0.37332000
O	14.24749588	29.78711214	0.37332000
O	29.49498776	19.30006607	0.37332000
O	29.49498776	29.78711214	0.37332000
O	18.05936588	19.30006607	0.37332000
O	18.05936588	29.78711214	0.37332000
O	12.34155588	14.05653607	0.37332000
O	12.34155588	24.54358214	0.37332000
O	27.58904776	14.05653607	0.37332000
O	27.58904776	24.54358214	0.37332000
O	16.15343588	14.05653607	0.37332000
O	16.15343588	24.54358214	0.37332000
O	19.96530588	14.05653607	0.37332000
O	19.96530588	24.54358214	0.37332000
O	12.34155588	11.08838607	1.26110000
O	12.34155588	21.57543214	1.26110000
O	27.58904776	11.08838607	1.26110000
O	27.58904776	21.57543214	1.26110000
O	16.15343588	11.08838607	1.26110000
O	16.15343588	21.57543214	1.26110000
O	19.96530588	11.08838607	1.26110000
O	19.96530588	21.57543214	1.26110000
O	10.43561588	16.33190607	1.26111000
O	10.43561588	26.81895214	1.26111000
O	25.68310776	16.33190607	1.26111000
O	25.68310776	26.81895214	1.26111000
O	14.24749588	16.33190607	1.26111000
O	14.24749588	26.81895214	1.26111000
O	29.49498776	16.33190607	1.26111000
O	29.49498776	26.81895214	1.26111000
O	18.05936588	16.33190607	1.26111000
O	18.05936588	26.81895214	1.26111000
O	10.43561588	12.55516607	1.83340000
O	10.43561588	23.04221214	1.83340000
O	25.68310776	12.55516607	1.83340000
O	25.68310776	23.04221214	1.83340000
O	14.24749588	12.55516607	1.83340000
O	14.24749588	23.04221214	1.83340000
O	29.49498776	12.55516607	1.83340000
O	29.49498776	23.04221214	1.83340000
O	18.05936588	12.55516607	1.83340000
O	18.05936588	23.04221214	1.83340000
O	12.34155588	17.79868607	1.83340000
O	12.34155588	28.28573214	1.83340000
O	27.58904776	17.79868607	1.83340000
O	27.58904776	28.28573214	1.83340000
O	16.15343588	17.79868607	1.83340000
O	16.15343588	28.28573214	1.83340000
O	19.96530588	17.79868607	1.83340000
O	19.96530588	28.28573214	1.83340000
O	12.34155588	14.83053607	2.72118000
O	12.34155588	25.31758214	2.72118000
O	27.58904776	14.83053607	2.72118000
O	27.58904776	25.31758214	2.72118000
O	16.15343588	14.83053607	2.72118000
O	16.15343588	25.31758214	2.72118000
O	19.96530588	14.83053607	2.72118000
O	19.96530588	25.31758214	2.72118000
O	10.43561588	20.07405607	2.72118000
O	10.43561588	30.56110214	2.72118000
O	25.68310776	20.07405607	2.72118000
O	25.68310776	30.56110214	2.72118000
O	14.24749588	20.07405607	2.72118000
O	14.24749588	30.56110214	2.72118000
O	29.49498776	20.07405607	2.72118000
O	29.49498776	30.56110214	2.72118000
O	18.05936588	20.07405607	2.72118000
O	18.05936588	30.56110214	2.72118000
Ti	6.59352175	9.23782075	4.81188912
Ti	6.68522982	6.32443343	5.61316556
Ti	2.74789160	9.15987505	4.80819785
Ti	0.90954379	3.96147808	4.81316829
Ti	4.74584828	4.05553872	4.80017908
Ti	0.85351366	1.05254672	5.54019845
Ti	4.73091442	1.05991290	5.50017118
Ti	2.83024462	6.29346982	5.58905653
O	6.82284249	7.42338569	4.04245980
O	6.67772243	4.44764123	4.77712028
O	6.66140373	0.57560073	5.80946175
O	6.61481425	8.06267805	6.43005467
O	2.89573834	7.31835803	3.95047261
O	1.01845112	2.07032489	3.97686681
O	4.57168779	2.15725761	3.97741223
O	0.91445613	9.64653891	4.65191850
O	4.68401929	9.63342854	4.83325902
O	2.78273648	4.46228254	4.95412066
O	2.80051465	0.60960248	5.58125041
O	0.91266755	5.81313659	6.03882070
O	4.74561748	5.79361106	5.69127306
O	0.94162911	2.84300959	6.34181196
O	4.90912328	2.82203189	6.38060925
O	2.77883931	8.07999684	6.37840862
Ti	21.77507337	9.22379551	4.73128863
Ti	8.54057448	4.00835588	4.75829367
Ti	23.76889113	3.89667324	4.83885402
Ti	8.59993717	1.05827638	5.55421177
Ti	23.82262133	0.99237668	5.46108251
Ti	21.88640821	6.31384698	5.43529434
Ti	10.52332378	9.24490338	4.89912795
Ti	25.58142856	9.14659603	4.67612812
Ti	14.18123696	9.20872855	4.81365637
Ti	29.40384645	9.21261500	4.75168719
Ti	17.96799263	9.16175827	4.68917092
Ti	12.29279244	3.99421662	4.74369737
Ti	27.58295513	3.99711223	4.81304480
Ti	16.05536728	3.98937114	4.72743026
Ti	19.92538362	4.05848202	4.73096694
Ti	12.27233905	1.08905776	5.53101315
Ti	27.55123661	0.99864384	5.49945537
Ti	16.03691428	0.95446820	5.42768579
Ti	19.88757767	1.15026607	5.46389129
Ti	10.48778788	6.26822796	5.51408323
Ti	25.62226137	6.28936503	5.46895748
Ti	14.27446110	6.26114578	5.50610705
Ti	29.53008055	6.37702700	5.56463939
Ti	18.08915241	6.30828429	5.57018852
O	21.78497222	7.29518432	3.86043678
O	8.66765258	2.11227510	3.98760058
O	23.81618429	2.08649407	3.90519225
O	8.55272217	9.75227479	4.86314914
O	23.73496584	9.54330277	5.01116506
O	21.86945296	4.43788178	4.70093685
O	21.83562721	0.68492583	5.75969259
O	8.60056126	5.81712194	5.84485467
O	23.79842164	5.69275948	5.72556100
O	8.62611551	2.76894571	6.45758365
O	23.77964523	2.76388201	6.36294713
O	21.72730618	8.12800590	6.32214204
O	10.20311674	7.33176348	3.92257822
O	25.50336568	7.38197868	3.88683570
O	13.99144835	7.32031046	4.00702410
O	29.51059156	7.31794656	3.88700380
O	18.07570133	7.31472162	3.94797406
O	12.28662098	2.07919509	3.92620008
O	27.30976385	2.04065165	3.94527652
O	16.01789911	2.10595153	3.88835977
O	19.94879584	2.04805561	3.91821984
O	12.38712224	9.77635380	4.42353023
O	27.52232624	9.53644845	4.78025196
O	16.07267343	9.53395331	4.84119855
O	19.89703611	9.76707365	4.78333103
O	10.45019941	4.43117159	4.71659886
O	25.72265113	4.41349404	4.71786106
O	14.16199196	4.40972720	4.88079361
O	29.48334833	4.40082809	4.88766308
O	18.01793599	4.44831348	4.76683194
O	10.50280764	0.50662612	5.88005218
O	25.60673270	0.42506641	5.91726700
O	14.12371446	0.53217742	5.83204498
O	29.42036555	0.63412584	5.66492451
O	17.97406037	0.66273254	5.73225816
O	12.46533041	5.86705326	5.88660112
O	27.55426117	5.86173989	5.68648514
O	16.16453300	5.75569314	5.84605092
O	19.97963409	5.84452571	5.74010063
O	12.12970257	2.86907827	6.32380367
O	27.68882967	2.78497231	6.26646436
O	15.96132998	2.72003463	6.26647373
O	19.94940485	2.96685536	6.31482390
O	10.71231165	8.11847521	6.42481681
O	25.93603159	8.02122115	6.32222442
O	14.05040703	8.02300957	6.33524448
O	29.62845922	8.12169093	6.35467721
O	18.05564192	8.01879308	6.35839277
Ti	6.67830033	19.75596896	4.82883836
Ti	6.66629859	30.27189070	4.71624566
Ti	6.59792326	16.86904444	5.46605329
Ti	6.54840569	27.36449137	5.52749178
Ti	2.95004199	19.73848302	4.72099215
Ti	2.80306861	30.17248659	4.66873458
Ti	0.99012123	14.28551842	4.67578125
Ti	0.95873710	24.96977600	4.73128021
Ti	4.61494554	14.52125692	4.86919682
Ti	4.79801248	25.03782263	4.69589599
Ti	0.89041308	11.39952701	5.49196757
Ti	0.90664822	22.10858666	5.54592872
Ti	4.72154427	11.55723439	5.39844297
Ti	4.81641920	22.06245952	5.51620458
Ti	2.67653659	16.89494473	5.62056982
Ti	2.80109693	27.26638208	5.35400045
O	6.83240863	17.96315339	3.89236102
O	6.64084939	28.40153070	3.95239823
O	6.57196949	14.97807974	4.79148219
O	6.69243333	25.54470801	4.68180324
O	6.63725154	11.10570607	5.84324320
O	6.69903170	21.49310011	5.84224907
O	6.60595727	18.56807068	6.29804927
O	6.76117091	29.12623798	6.44853035
O	2.79193553	17.85108034	4.01473803
O	2.75893693	28.35452754	3.91139998
O	1.01046749	12.45899199	3.89593951
O	1.02013297	23.09848822	3.93711577
O	4.55869365	12.72714104	3.96773354
O	4.74706792	23.04547759	3.95523664
O	1.00100665	20.10268970	4.88647356
O	0.92197415	30.55767020	4.77931772
O	4.78817407	20.26204714	4.70583368
O	4.75786143	30.60789034	4.68307878
O	2.70110801	15.04199008	5.06381264
O	2.84086236	25.38385151	4.62140256
O	2.77112401	11.09703464	5.82441799
O	2.87109488	21.71804766	5.70332736
O	0.88798687	16.72792665	6.20854790
O	0.92760868	26.80991533	5.68067176
O	4.65956102	16.41620540	5.50569809
O	4.71416829	26.87361242	5.77491886
O	0.82092339	13.20067255	6.36916669
O	0.82537831	23.89975223	6.32903175
O	4.61109078	13.26854137	6.34885955
O	4.90597066	23.90373609	6.28737803
O	3.16904863	18.66318252	6.48235879
O	2.73210445	29.01935943	6.26930289
Ti	22.05913819	19.70313845	4.66878564
Ti	21.78760647	30.21691394	4.72518805
Ti	8.43393075	14.57287259	4.72425454
Ti	8.56498264	24.93535125	4.70156975
Ti	23.89167164	14.45693440	4.80908220
Ti	23.82340265	24.87940975	4.74082774
Ti	8.59206414	11.64726134	5.51928206
Ti	8.52778267	22.00636342	5.42417574
Ti	23.73456563	11.51796136	5.47823942
Ti	23.85189269	21.98120413	5.64419191
Ti	21.88210542	16.78934423	5.41487890
Ti	21.84978458	27.25207319	5.40920961
Ti	10.49982132	19.77196103	4.73513775
Ti	10.44852204	30.19199645	4.79923073
Ti	25.81027639	19.66656785	4.79964506
Ti	25.65730251	30.17280558	4.77675165
Ti	14.33901775	19.57447563	4.77243202
Ti	14.13634108	30.17898170	4.68062438
Ti	29.52491608	19.77603935	4.69732362
Ti	29.49050552	30.17147862	4.84771783
Ti	18.10488476	19.68762744	4.78552197
Ti	17.96370711	30.22445679	4.76629719
Ti	12.43054885	14.51808840	4.75049333
Ti	12.45143991	24.97818583	4.73619446
Ti	27.77226770	14.42336507	4.84552075
Ti	27.66010474	24.97593854	4.75923131
Ti	16.14148825	14.38926096	4.77554511
Ti	16.30350284	24.80694429	4.64752694
Ti	19.95288222	14.42291922	4.79278009
Ti	20.02694026	24.95934385	4.84030954
Ti	12.36215901	11.62323709	5.50059364
Ti	12.43017861	22.12138658	5.61404397
Ti	27.52774823	11.49821630	5.49237683
Ti	27.61401880	22.01662283	5.43433218
Ti	16.14484912	11.41415778	5.51368676
Ti	16.21089272	21.92283162	5.51899460
Ti	19.81565498	11.52604134	5.54812303
Ti	20.14585569	21.94134031	5.43019359
Ti	10.37422603	16.81215951	5.49716881
Ti	10.43286709	27.24307774	5.40247458
Ti	25.71588687	16.76969689	5.49132940
Ti	25.72515443	27.20721896	5.43390986
Ti	14.31827581	16.70087128	5.69252650
Ti	14.27260912	27.29404862	5.51803147
Ti	29.52822498	16.93703544	5.65163294
Ti	29.43149755	27.22184287	5.54800297
Ti	18.23310746	16.77496708	5.41678294
Ti	18.02390250	27.39530533	5.53420625
O	21.90314474	17.83804953	3.91445325
O	21.70149016	28.36378289	3.93933030
O	8.60446362	12.63104469	3.92478196
O	8.58660813	23.03563846	3.98207502
O	23.64489462	12.62993082	3.93494068
O	23.95910370	22.92390482	3.93050508
O	8.58778266	20.23155368	4.69288338
O	8.53318175	30.65856781	4.85499455
O	23.88450187	20.20363186	4.73681836
O	23.70841402	30.58349770	4.82950249
O	21.89962466	14.79204527	4.72451500
O	21.86931208	25.37139292	4.77669155
O	21.86825479	11.03917529	5.68676406
O	21.95324151	21.49805930	5.76326388
O	8.49134623	16.33589601	5.73263635
O	8.55513590	26.74742986	5.79218337
O	23.86679998	16.31845838	5.74469289
O	23.81150752	26.65065961	5.66834961
O	8.53603014	13.38450907	6.31743292
O	8.32312569	23.83601983	6.39619303
O	23.86360980	13.19358705	6.36591613
O	23.92137770	23.80377424	6.42181339
O	21.80370784	18.52138556	6.30092439
O	21.90663572	29.02904941	6.35443414
O	10.35813157	17.88135965	3.93963484
O	10.34474811	28.32591891	3.84426864
O	25.79011695	17.86180495	3.85777235
O	25.80364619	28.25226276	3.91822595
O	14.24236223	17.81395008	3.94858327
O	14.24679972	28.29554786	3.91760179
O	29.63448951	17.84811850	3.99662324
O	29.51015208	28.32019296	4.04283413
O	18.05125079	17.91071748	3.91897258
O	18.20177634	28.44065882	3.95182655
O	12.28251691	12.66993433	3.91194425
O	12.47155998	23.16366352	4.00097773
O	27.58517809	12.59456240	4.00713353
O	27.48670967	23.19181291	3.94140468
O	16.27162103	12.56516078	3.97515935
O	16.25514926	22.97249440	3.92295919
O	19.95664871	12.59523890	3.99912522
O	20.05741271	23.13304210	3.97264788
O	12.43218341	20.29019240	4.68705809
O	12.30925633	30.76599338	4.64814931
O	27.62354210	20.13900924	4.66593686
O	27.60325577	30.66830316	4.73915895
O	16.21455710	19.99328154	4.79843613
O	16.09716924	30.55498290	4.95057909
O	20.07404951	19.96774760	4.68938776
O	19.95493035	30.64748118	4.94165013
O	10.40157554	14.98920489	4.72889138
O	10.47180357	25.30706678	4.64595687
O	25.79441601	14.71836652	4.82501244
O	25.70565658	25.46736113	4.67541318
O	14.25073349	14.89106186	4.76145173
O	14.38209826	25.40061190	4.75945067
O	29.72216723	14.92627305	5.04260467
O	29.55339717	25.40247623	4.68796188
O	18.07486859	14.88811912	4.77500647
O	18.09059068	25.46492058	5.02622765
O	10.52264329	11.07750573	5.85203049
O	10.47248939	21.58635010	5.72019453
O	25.67140044	11.03701441	5.62151269
O	25.77146933	21.34502640	6.09042414
O	14.10301886	11.00085926	5.70823510
O	14.35272033	21.53562238	5.84612997
O	29.40437636	10.99067498	5.73655166
O	29.55424567	21.65350843	5.46913449
O	17.98833070	10.81228314	5.85003768
O	18.16377591	21.37466233	5.81652461
O	12.29629261	16.31889480	5.76312909
O	12.35534376	26.81113930	5.68286852
O	27.60528292	16.19710790	5.88033156
O	27.64178648	26.76462685	5.75337429
O	16.29689964	16.42172391	5.56726915
O	16.16772159	26.97695558	5.77046294
O	20.02908541	16.24020513	5.73628153
O	19.94533507	26.87219558	5.77562353
O	12.41092771	13.28114155	6.30526594
O	12.45211192	23.79704592	6.47720195
O	27.63575921	13.22477746	6.35753306
O	27.50922244	23.72700959	6.37548957
O	16.07805728	13.21510629	6.40380228
O	16.05015605	23.61967736	6.42713435
O	19.91192136	13.41327849	6.39791993
O	20.10970928	23.63503339	6.42292773
O	10.66940929	18.54292409	6.22642020
O	10.59748235	28.95412799	6.27513714
O	25.97410651	18.50604282	6.27282782
O	25.64137511	29.02107791	6.28235783
O	14.08678397	18.56814342	6.39458584
O	14.13707325	29.03884304	6.34625513
O	29.37541304	18.66744876	6.36111530
O	29.40229720	29.00448675	6.43729194
O	18.10792318	18.44483416	6.38279732
O	17.83947085	29.18098672	6.35294854
H	13.53838175	14.09254074	7.94590035
H	14.06523838	14.81079675	11.16713469
H	14.06009552	18.35529670	8.68444193
O	14.41882624	16.10786679	7.53805341
O	13.66323739	14.46820710	8.85749537
C	14.00810866	15.69915418	8.73345348
C	14.04463768	16.52048033	9.91306191
C	13.98070956	15.91779182	11.19746204
C	13.98431472	17.97818928	9.78159142
N	13.06722570	19.26737976	15.79460309
N	15.32717739	22.47264500	16.83009749
N	15.12907861	21.04689816	14.28415432
N	13.18189024	20.89818127	18.16767495
C	20.35532104	24.23256241	14.49007868
C	15.89834053	23.75081360	22.55420151
C	7.80191628	18.60773116	18.30364668
C	17.97887141	23.56124134	14.24402823
C	14.71884695	23.47342600	20.43762523
C	10.26762489	18.63486789	18.23262304
C	18.95748609	25.48485919	13.04171217
C	14.29212025	25.41449740	21.73436436
C	9.03690901	17.03657960	19.63952218
C	14.02015520	18.94615852	13.51430161
C	16.80453184	22.77843403	14.75283772
C	14.54283269	22.69747825	19.18487033
C	11.54000941	19.15807086	17.72390411
C	14.91546543	20.01229466	13.42859437
C	16.22535426	21.80338925	13.96185966
C	13.50138249	21.77875119	19.17366236
C	12.18426114	20.10590237	18.53177865
C	15.94861535	20.21142684	12.39036691
C	16.75906196	21.28274230	12.72507164
C	12.52682970	21.61012525	20.16361344
C	11.71315393	20.53750512	19.85043691
C	13.06748670	18.72895882	14.55877020
C	16.29645115	23.08134229	16.06556693
C	15.40087270	22.99349387	18.12626393
C	11.92645103	18.81434569	16.45541395
C	11.86050331	17.92477675	14.40395040
C	16.89384140	24.10913603	16.84867010
C	16.35317088	24.05885686	18.13319485
C	11.22915819	17.92828038	15.62829301
H	11.71197059	17.42903229	13.48776686
H	17.53008898	24.97063423	16.51503606
H	16.49008658	24.80249855	18.87785203
H	10.31915488	17.43543423	15.90837414
H	15.97626253	19.50924072	11.55864623
H	17.51145023	21.77304546	12.05537691
H	12.53389781	22.10132995	21.17256944
H	10.80223740	20.08154179	20.32852328
H	18.85426357	26.26604672	12.28724619
H	13.83548359	26.42920397	21.85129239
H	9.00808798	16.22087193	20.44019368
H	21.31297905	24.05114045	14.97356049
H	16.64899808	23.50449549	23.26992197
H	6.85381858	18.88641969	17.91097533
H	14.66139114	21.16227094	15.20469958
H	13.71264653	20.86110905	17.26593557
C	21.30308627	26.28114538	13.47228095
H	21.75534417	26.61780260	14.40618244
H	20.95999408	27.12381318	12.89086310
H	22.14078570	25.88810752	12.98075645
C	19.46248450	22.37561631	15.87076965
H	19.40235237	21.41457630	15.39801360
H	18.69663030	22.43333506	16.61359296
H	20.40626697	22.52762503	16.39758103
C	16.55834284	24.93512922	12.72130386
H	16.44600757	25.98700379	12.98754744
H	15.73401419	24.35183213	13.13973463
H	16.51508278	24.89939616	11.60091263
C	11.49021080	16.78357187	19.60401144
H	11.21395993	16.04448221	20.37430092
H	12.25287692	17.50356696	19.96063757
H	11.96519841	16.21908929	18.75306678
C	8.98965346	20.22854644	16.82766486
H	9.43229814	21.14954679	17.26036819
H	7.99318290	20.46360017	16.50730302
H	9.59043552	19.86496160	15.96288434
C	6.63076402	16.87055505	19.73486919
H	6.09251859	16.37228933	18.85871869
H	5.88111478	17.51883007	20.19453577
H	6.89423310	16.02574037	20.39642954
C	12.96783995	25.20341062	19.67415618
H	12.96210611	24.72150313	18.69579863
H	13.14146664	26.30656805	19.49177364
H	11.96264484	25.12943750	20.18880480
C	16.42489625	21.75023311	21.03687785
H	16.74045179	21.90621355	20.02969272
H	15.83124805	20.82604441	21.23223477
H	17.37680037	21.61621703	21.63813202
C	15.54431899	25.93752040	23.77592299
H	16.12458667	26.70299012	23.30750896
H	16.21855991	25.50929852	24.61183293
H	14.65818732	26.29579616	24.30567379
C	20.22554552	25.32230004	13.63275770
C	19.25492353	23.38648387	14.81990543
C	17.88897975	24.61493910	13.28522752
C	14.00884736	24.68742840	20.57929433
C	15.65279085	22.97902639	21.35422236
C	15.23660432	24.92370419	22.69798171
C	10.24706171	17.51739957	19.14429073
C	9.01464373	19.12625016	17.80364728
C	7.82489209	17.56880321	19.26147970
H	14.08413829	16.33056173	13.35555314
H	13.70379212	19.77492912	10.93512642
C	13.92680209	18.12442370	12.23979820
C	13.90686583	16.70243658	12.33807074
C	13.91425768	18.71764718	10.97259458

Ti O H C N 0
6-31G*
****

