%chk=f00019972.chk
%mem=24GB
%nproc=12
#p b3lyp/6-31G*

title

0 1
Ti	2.81187400	0.19704000	1.10336000
Ti	0.90594400	5.44057000	1.10336000
Ti	4.71781400	5.44057000	1.10336000
Ti	0.90594400	2.47241000	1.99114000
Ti	4.71781400	2.47241000	1.99114000
Ti	2.81187400	7.71594000	1.99115000
O	2.81187400	8.81302000	0.37332000
O	0.90594400	3.56949000	0.37332000
O	4.71781400	3.56949000	0.37332000
O	0.90594400	0.60134000	1.26110000
O	4.71781400	0.60134000	1.26110000
O	2.81187400	5.84486000	1.26111000
O	2.81187400	2.06812000	1.83340000
O	0.90594400	7.31164000	1.83340000
O	4.71781400	7.31164000	1.83340000
O	0.90594400	4.34349000	2.72118000
O	4.71781400	4.34349000	2.72118000
O	2.81187400	9.58701000	2.72118000
Ti	6.62374588	0.19704000	1.10336000
Ti	21.87123776	0.19704000	1.10336000
Ti	8.52968588	5.44057000	1.10336000
Ti	23.77717776	5.44057000	1.10336000
Ti	8.52968588	2.47241000	1.99114000
Ti	23.77717776	2.47241000	1.99114000
Ti	6.62374588	7.71594000	1.99115000
Ti	21.87123776	7.71594000	1.99115000
Ti	10.43561588	0.19704000	1.10336000
Ti	25.68310776	0.19704000	1.10336000
Ti	14.24749588	0.19704000	1.10336000
Ti	29.49498776	0.19704000	1.10336000
Ti	18.05936588	0.19704000	1.10336000
Ti	12.34155588	5.44057000	1.10336000
Ti	27.58904776	5.44057000	1.10336000
Ti	16.15343588	5.44057000	1.10336000
Ti	19.96530588	5.44057000	1.10336000
Ti	12.34155588	2.47241000	1.99114000
Ti	27.58904776	2.47241000	1.99114000
Ti	16.15343588	2.47241000	1.99114000
Ti	19.96530588	2.47241000	1.99114000
Ti	10.43561588	7.71594000	1.99115000
Ti	25.68310776	7.71594000	1.99115000
Ti	14.24749588	7.71594000	1.99115000
Ti	29.49498776	7.71594000	1.99115000
Ti	18.05936588	7.71594000	1.99115000
O	6.62374588	8.81302000	0.37332000
O	21.87123776	8.81302000	0.37332000
O	8.52968588	3.56949000	0.37332000
O	23.77717776	3.56949000	0.37332000
O	8.52968588	0.60134000	1.26110000
O	23.77717776	0.60134000	1.26110000
O	6.62374588	5.84486000	1.26111000
O	21.87123776	5.84486000	1.26111000
O	6.62374588	2.06812000	1.83340000
O	21.87123776	2.06812000	1.83340000
O	8.52968588	7.31164000	1.83340000
O	23.77717776	7.31164000	1.83340000
O	8.52968588	4.34349000	2.72118000
O	23.77717776	4.34349000	2.72118000
O	6.62374588	9.58701000	2.72118000
O	21.87123776	9.58701000	2.72118000
O	10.43561588	8.81302000	0.37332000
O	25.68310776	8.81302000	0.37332000
O	14.24749588	8.81302000	0.37332000
O	29.49498776	8.81302000	0.37332000
O	18.05936588	8.81302000	0.37332000
O	12.34155588	3.56949000	0.37332000
O	27.58904776	3.56949000	0.37332000
O	16.15343588	3.56949000	0.37332000
O	19.96530588	3.56949000	0.37332000
O	12.34155588	0.60134000	1.26110000
O	27.58904776	0.60134000	1.26110000
O	16.15343588	0.60134000	1.26110000
O	19.96530588	0.60134000	1.26110000
O	10.43561588	5.84486000	1.26111000
O	25.68310776	5.84486000	1.26111000
O	14.24749588	5.84486000	1.26111000
O	29.49498776	5.84486000	1.26111000
O	18.05936588	5.84486000	1.26111000
O	10.43561588	2.06812000	1.83340000
O	25.68310776	2.06812000	1.83340000
O	14.24749588	2.06812000	1.83340000
O	29.49498776	2.06812000	1.83340000
O	18.05936588	2.06812000	1.83340000
O	12.34155588	7.31164000	1.83340000
O	27.58904776	7.31164000	1.83340000
O	16.15343588	7.31164000	1.83340000
O	19.96530588	7.31164000	1.83340000
O	12.34155588	4.34349000	2.72118000
O	27.58904776	4.34349000	2.72118000
O	16.15343588	4.34349000	2.72118000
O	19.96530588	4.34349000	2.72118000
O	10.43561588	9.58701000	2.72118000
O	25.68310776	9.58701000	2.72118000
O	14.24749588	9.58701000	2.72118000
O	29.49498776	9.58701000	2.72118000
O	18.05936588	9.58701000	2.72118000
Ti	2.81187400	10.68408607	1.10336000
Ti	2.81187400	21.17113214	1.10336000
Ti	0.90594400	15.92761607	1.10336000
Ti	0.90594400	26.41466214	1.10336000
Ti	4.71781400	15.92761607	1.10336000
Ti	4.71781400	26.41466214	1.10336000
Ti	0.90594400	12.95945607	1.99114000
Ti	0.90594400	23.44650214	1.99114000
Ti	4.71781400	12.95945607	1.99114000
Ti	4.71781400	23.44650214	1.99114000
Ti	2.81187400	18.20298607	1.99115000
Ti	2.81187400	28.69003214	1.99115000
O	2.81187400	19.30006607	0.37332000
O	2.81187400	29.78711214	0.37332000
O	0.90594400	14.05653607	0.37332000
O	0.90594400	24.54358214	0.37332000
O	4.71781400	14.05653607	0.37332000
O	4.71781400	24.54358214	0.37332000
O	0.90594400	11.08838607	1.26110000
O	0.90594400	21.57543214	1.26110000
O	4.71781400	11.08838607	1.26110000
O	4.71781400	21.57543214	1.26110000
O	2.81187400	16.33190607	1.26111000
O	2.81187400	26.81895214	1.26111000
O	2.81187400	12.55516607	1.83340000
O	2.81187400	23.04221214	1.83340000
O	0.90594400	17.79868607	1.83340000
O	0.90594400	28.28573214	1.83340000
O	4.71781400	17.79868607	1.83340000
O	4.71781400	28.28573214	1.83340000
O	0.90594400	14.83053607	2.72118000
O	0.90594400	25.31758214	2.72118000
O	4.71781400	14.83053607	2.72118000
O	4.71781400	25.31758214	2.72118000
O	2.81187400	20.07405607	2.72118000
O	2.81187400	30.56110214	2.72118000
Ti	6.62374588	10.68408607	1.10336000
Ti	6.62374588	21.17113214	1.10336000
Ti	21.87123776	10.68408607	1.10336000
Ti	21.87123776	21.17113214	1.10336000
Ti	8.52968588	15.92761607	1.10336000
Ti	8.52968588	26.41466214	1.10336000
Ti	23.77717776	15.92761607	1.10336000
Ti	23.77717776	26.41466214	1.10336000
Ti	8.52968588	12.95945607	1.99114000
Ti	8.52968588	23.44650214	1.99114000
Ti	23.77717776	12.95945607	1.99114000
Ti	23.77717776	23.44650214	1.99114000
Ti	6.62374588	18.20298607	1.99115000
Ti	6.62374588	28.69003214	1.99115000
Ti	21.87123776	18.20298607	1.99115000
Ti	21.87123776	28.69003214	1.99115000
Ti	10.43561588	10.68408607	1.10336000
Ti	10.43561588	21.17113214	1.10336000
Ti	25.68310776	10.68408607	1.10336000
Ti	25.68310776	21.17113214	1.10336000
Ti	14.24749588	10.68408607	1.10336000
Ti	14.24749588	21.17113214	1.10336000
Ti	29.49498776	10.68408607	1.10336000
Ti	29.49498776	21.17113214	1.10336000
Ti	18.05936588	10.68408607	1.10336000
Ti	18.05936588	21.17113214	1.10336000
Ti	12.34155588	15.92761607	1.10336000
Ti	12.34155588	26.41466214	1.10336000
Ti	27.58904776	15.92761607	1.10336000
Ti	27.58904776	26.41466214	1.10336000
Ti	16.15343588	15.92761607	1.10336000
Ti	16.15343588	26.41466214	1.10336000
Ti	19.96530588	15.92761607	1.10336000
Ti	19.96530588	26.41466214	1.10336000
Ti	12.34155588	12.95945607	1.99114000
Ti	12.34155588	23.44650214	1.99114000
Ti	27.58904776	12.95945607	1.99114000
Ti	27.58904776	23.44650214	1.99114000
Ti	16.15343588	12.95945607	1.99114000
Ti	16.15343588	23.44650214	1.99114000
Ti	19.96530588	12.95945607	1.99114000
Ti	19.96530588	23.44650214	1.99114000
Ti	10.43561588	18.20298607	1.99115000
Ti	10.43561588	28.69003214	1.99115000
Ti	25.68310776	18.20298607	1.99115000
Ti	25.68310776	28.69003214	1.99115000
Ti	14.24749588	18.20298607	1.99115000
Ti	14.24749588	28.69003214	1.99115000
Ti	29.49498776	18.20298607	1.99115000
Ti	29.49498776	28.69003214	1.99115000
Ti	18.05936588	18.20298607	1.99115000
Ti	18.05936588	28.69003214	1.99115000
O	6.62374588	19.30006607	0.37332000
O	6.62374588	29.78711214	0.37332000
O	21.87123776	19.30006607	0.37332000
O	21.87123776	29.78711214	0.37332000
O	8.52968588	14.05653607	0.37332000
O	8.52968588	24.54358214	0.37332000
O	23.77717776	14.05653607	0.37332000
O	23.77717776	24.54358214	0.37332000
O	8.52968588	11.08838607	1.26110000
O	8.52968588	21.57543214	1.26110000
O	23.77717776	11.08838607	1.26110000
O	23.77717776	21.57543214	1.26110000
O	6.62374588	16.33190607	1.26111000
O	6.62374588	26.81895214	1.26111000
O	21.87123776	16.33190607	1.26111000
O	21.87123776	26.81895214	1.26111000
O	6.62374588	12.55516607	1.83340000
O	6.62374588	23.04221214	1.83340000
O	21.87123776	12.55516607	1.83340000
O	21.87123776	23.04221214	1.83340000
O	8.52968588	17.79868607	1.83340000
O	8.52968588	28.28573214	1.83340000
O	23.77717776	17.79868607	1.83340000
O	23.77717776	28.28573214	1.83340000
O	8.52968588	14.83053607	2.72118000
O	8.52968588	25.31758214	2.72118000
O	23.77717776	14.83053607	2.72118000
O	23.77717776	25.31758214	2.72118000
O	6.62374588	20.07405607	2.72118000
O	6.62374588	30.56110214	2.72118000
O	21.87123776	20.07405607	2.72118000
O	21.87123776	30.56110214	2.72118000
O	10.43561588	19.30006607	0.37332000
O	10.43561588	29.78711214	0.37332000
O	25.68310776	19.30006607	0.37332000
O	25.68310776	29.78711214	0.37332000
O	14.24749588	19.30006607	0.37332000
O	14.24749588	29.78711214	0.37332000
O	29.49498776	19.30006607	0.37332000
O	29.49498776	29.78711214	0.37332000
O	18.05936588	19.30006607	0.37332000
O	18.05936588	29.78711214	0.37332000
O	12.34155588	14.05653607	0.37332000
O	12.34155588	24.54358214	0.37332000
O	27.58904776	14.05653607	0.37332000
O	27.58904776	24.54358214	0.37332000
O	16.15343588	14.05653607	0.37332000
O	16.15343588	24.54358214	0.37332000
O	19.96530588	14.05653607	0.37332000
O	19.96530588	24.54358214	0.37332000
O	12.34155588	11.08838607	1.26110000
O	12.34155588	21.57543214	1.26110000
O	27.58904776	11.08838607	1.26110000
O	27.58904776	21.57543214	1.26110000
O	16.15343588	11.08838607	1.26110000
O	16.15343588	21.57543214	1.26110000
O	19.96530588	11.08838607	1.26110000
O	19.96530588	21.57543214	1.26110000
O	10.43561588	16.33190607	1.26111000
O	10.43561588	26.81895214	1.26111000
O	25.68310776	16.33190607	1.26111000
O	25.68310776	26.81895214	1.26111000
O	14.24749588	16.33190607	1.26111000
O	14.24749588	26.81895214	1.26111000
O	29.49498776	16.33190607	1.26111000
O	29.49498776	26.81895214	1.26111000
O	18.05936588	16.33190607	1.26111000
O	18.05936588	26.81895214	1.26111000
O	10.43561588	12.55516607	1.83340000
O	10.43561588	23.04221214	1.83340000
O	25.68310776	12.55516607	1.83340000
O	25.68310776	23.04221214	1.83340000
O	14.24749588	12.55516607	1.83340000
O	14.24749588	23.04221214	1.83340000
O	29.49498776	12.55516607	1.83340000
O	29.49498776	23.04221214	1.83340000
O	18.05936588	12.55516607	1.83340000
O	18.05936588	23.04221214	1.83340000
O	12.34155588	17.79868607	1.83340000
O	12.34155588	28.28573214	1.83340000
O	27.58904776	17.79868607	1.83340000
O	27.58904776	28.28573214	1.83340000
O	16.15343588	17.79868607	1.83340000
O	16.15343588	28.28573214	1.83340000
O	19.96530588	17.79868607	1.83340000
O	19.96530588	28.28573214	1.83340000
O	12.34155588	14.83053607	2.72118000
O	12.34155588	25.31758214	2.72118000
O	27.58904776	14.83053607	2.72118000
O	27.58904776	25.31758214	2.72118000
O	16.15343588	14.83053607	2.72118000
O	16.15343588	25.31758214	2.72118000
O	19.96530588	14.83053607	2.72118000
O	19.96530588	25.31758214	2.72118000
O	10.43561588	20.07405607	2.72118000
O	10.43561588	30.56110214	2.72118000
O	25.68310776	20.07405607	2.72118000
O	25.68310776	30.56110214	2.72118000
O	14.24749588	20.07405607	2.72118000
O	14.24749588	30.56110214	2.72118000
O	29.49498776	20.07405607	2.72118000
O	29.49498776	30.56110214	2.72118000
O	18.05936588	20.07405607	2.72118000
O	18.05936588	30.56110214	2.72118000
Ti	6.61196646	9.26123374	4.79431963
Ti	6.61313336	6.31251980	5.62674166
Ti	2.77661847	9.21673760	4.69309905
Ti	0.94093043	3.98640069	4.78406471
Ti	4.67071368	3.97841011	4.83099215
Ti	0.94302090	1.07009997	5.55534771
Ti	4.72705728	1.06835904	5.59963508
Ti	2.85259536	6.37324500	5.67282924
O	6.68326465	7.38968957	4.02408589
O	6.54124515	4.57311208	4.69323291
O	6.62714636	0.57355125	5.73652982
O	6.32315942	8.12630691	6.38125870
O	2.79742559	7.23181157	3.89901358
O	1.10975498	2.14798783	4.03144777
O	4.59211587	2.13357693	4.00323195
O	0.91232380	9.63361623	4.70659923
O	4.66573029	9.75207929	4.87818529
O	2.82427574	4.49145630	4.86824056
O	2.80025666	0.55346540	5.77084952
O	0.88965261	5.91250285	5.90630191
O	4.82244450	5.77390121	5.94341091
O	0.88207442	2.82224350	6.46237698
O	4.60601000	2.71829748	6.53780213
O	2.77912549	8.12862019	6.33986159
Ti	21.89275434	9.15681480	4.77797771
Ti	8.46705958	4.13206789	4.70695359
Ti	23.89416223	4.02995901	4.71522796
Ti	8.52269561	1.20062788	5.44935552
Ti	23.71826528	1.09662435	5.54338788
Ti	22.05957842	6.26255211	5.47572092
Ti	10.33937516	9.30077536	4.76768374
Ti	25.70513200	9.16355446	4.66555422
Ti	14.20096642	9.26164333	4.79084173
Ti	29.51387911	9.20190604	4.70815343
Ti	18.02469118	9.17274603	4.77193697
Ti	12.28814875	4.08170843	4.76242735
Ti	27.72917300	3.96975887	4.78040526
Ti	16.15383891	4.00961218	4.66263706
Ti	19.94267581	3.91764808	4.66810272
Ti	12.40628618	1.08584503	5.47974294
Ti	27.61584630	1.03132171	5.37034027
Ti	16.10412965	1.06506350	5.46763498
Ti	19.86995518	1.02162307	5.49935293
Ti	10.46487861	6.37484504	5.49172177
Ti	25.77867037	6.26522142	5.55887799
Ti	14.29849549	6.27173023	5.49115571
Ti	29.56418556	6.35120089	5.47277260
Ti	18.17607345	6.28536546	5.49838573
O	21.96281753	7.37990739	3.91280200
O	8.59535322	2.17184946	3.94528294
O	23.71574188	2.07536968	3.88766356
O	8.44542783	9.60309716	4.86198405
O	23.84074646	9.55083738	4.73254197
O	21.93034329	4.30528253	4.76382940
O	21.77615518	0.61230639	5.69011906
O	8.55425903	5.86943857	5.70409656
O	23.91178225	5.73405676	5.79200986
O	8.45005224	2.88671794	6.36088768
O	23.95341205	2.82376398	6.33573751
O	22.17970187	7.98106580	6.29068867
O	10.51864305	7.40084240	3.93604869
O	25.65261547	7.30436968	3.98382853
O	14.04158506	7.34850611	3.93323249
O	29.55231631	7.40056352	3.88271568
O	18.00215708	7.26472651	3.92306234
O	12.48709276	2.14894319	3.96340271
O	27.68349046	2.06777400	3.85350747
O	16.10520232	2.14751194	3.95897734
O	20.01146689	2.06361968	3.96863510
O	12.37934302	9.69223643	4.81137559
O	27.60349802	9.66190246	4.83424507
O	16.10220140	9.67404056	4.64493428
O	19.98480206	9.48149614	4.88599778
O	10.43158832	4.50423965	4.84883482
O	25.79057745	4.32701761	4.74698274
O	14.28467609	4.48784084	4.75395029
O	29.53454442	4.54564794	4.64222169
O	18.09370987	4.49617277	4.66738736
O	10.45952262	0.62721568	5.56638918
O	25.65380993	0.61071568	5.51840102
O	14.22015399	1.03287604	6.14649380
O	29.52544339	0.58134369	5.74943553
O	17.97267619	0.57339620	5.79874771
O	12.41195806	5.87499310	5.87556741
O	27.64473848	5.95542018	5.78632017
O	16.23087844	5.92509430	5.81507231
O	20.07864649	5.89559889	5.73403991
O	12.20949459	2.99797124	6.29076962
O	27.72713493	2.72405720	6.33435933
O	16.28563652	2.83083500	6.30849065
O	19.85493783	2.80124029	6.44186865
O	10.30046996	8.10959620	6.35474556
O	25.71925501	8.03758631	6.32929021
O	14.32421788	8.03931749	6.37012801
O	29.49914325	8.20228229	6.32018015
O	18.03172224	8.05902521	6.41598145
Ti	6.67984685	19.45232142	4.71052884
Ti	6.66521185	30.22902143	4.79855718
Ti	6.49369495	16.64177499	5.52073852
Ti	6.60742655	27.29471556	5.50481355
Ti	3.01356415	19.75398555	4.68003883
Ti	2.83973745	30.26280338	4.75167052
Ti	0.92623113	14.30450182	4.66938238
Ti	0.95319097	24.97293518	4.68346294
Ti	4.52132667	14.49014782	4.86342628
Ti	4.66613416	24.99771409	4.77573020
Ti	0.85316477	11.45535643	5.54131934
Ti	0.96050840	22.05492630	5.48743707
Ti	4.51976145	11.59095974	5.57049596
Ti	4.75011288	22.12327910	5.60962548
Ti	2.76532660	16.93903819	5.55406678
Ti	2.74801017	27.35144989	5.42986157
O	6.64510642	17.75454151	3.95279324
O	6.56745188	28.41005598	3.95259961
O	6.50910989	14.84789270	4.88970434
O	6.60319250	25.42424863	4.84444886
O	6.58558937	11.10793404	5.77508131
O	6.64483781	21.97054432	6.12928412
O	6.44230171	18.33481567	6.21710459
O	6.73856113	28.98438285	6.38387486
O	2.86322199	17.89933635	3.93343753
O	2.85138344	28.30744314	3.90394572
O	0.91914880	12.46471228	3.91200590
O	0.99394631	23.09005509	3.89316556
O	4.57610299	12.65385754	4.07433113
O	4.66583787	23.12222579	3.97839354
O	0.96134199	20.10066510	4.86288556
O	0.89436404	30.68454147	4.77266008
O	4.84460883	20.27947342	4.77151390
O	4.77847200	30.62333231	4.92575950
O	2.63101908	15.06929311	4.83916099
O	2.75634254	25.45243444	4.77993904
O	2.73584560	10.98767989	5.90282015
O	2.80153830	21.50849963	5.66478661
O	0.87640744	16.85169878	6.17497639
O	0.89911627	26.72483466	5.87956496
O	4.52742211	16.20273133	5.84792590
O	4.64621187	26.87066426	5.67935551
O	0.94396730	13.15176932	6.39374994
O	0.94355104	23.80023892	6.31800687
O	4.62912986	13.30090708	6.45113115
O	4.61807595	23.88715256	6.34475873
O	3.03897759	18.73791324	6.44612331
O	2.67859122	29.05250955	6.37125696
Ti	21.86902074	19.72480254	4.86773959
Ti	21.79418303	30.25307094	4.76430457
Ti	8.38932716	14.43856876	4.80827343
Ti	8.56126669	25.05177819	4.83483100
Ti	23.68610092	14.34283057	4.67865220
Ti	23.71168784	25.08268771	4.75527402
Ti	8.48678226	11.55343216	5.55787768
Ti	8.48547945	22.14903123	5.64132315
Ti	23.69171154	11.43609075	5.47096334
Ti	23.75544651	22.09678849	5.50749521
Ti	21.83668342	16.71568288	5.42596893
Ti	21.83802496	27.32432496	5.54377981
Ti	10.29498240	19.62277218	4.68831768
Ti	10.42393163	30.27007244	4.77369391
Ti	25.82604913	19.63741922	4.64607603
Ti	25.57997904	30.22994954	4.70142662
Ti	14.15719210	19.71003182	4.84967475
Ti	14.18564377	29.98080601	4.65060338
Ti	29.52067355	19.64579189	4.76501531
Ti	29.47359454	30.12179232	4.88902306
Ti	18.06611063	19.70729538	4.76910912
Ti	18.00171204	30.19250379	4.71233811
Ti	12.29903229	14.46404083	4.58688312
Ti	12.15794655	24.89203434	4.68048881
Ti	27.71809119	14.42885485	4.80050307
Ti	27.60305369	24.97440349	4.78798082
Ti	16.20440461	14.52469953	4.64885260
Ti	16.11427162	24.92511283	4.60282832
Ti	19.98294220	14.30732963	4.80741360
Ti	19.84800584	24.89256258	4.64280926
Ti	12.49140996	11.60635978	5.54197841
Ti	12.27426048	21.98445170	5.52385266
Ti	27.56801751	11.49750656	5.58381832
Ti	27.67061508	22.12190366	5.45200274
Ti	16.26431849	11.63521716	5.50029344
Ti	16.11162669	22.05195916	5.45124339
Ti	20.07279266	11.39220412	5.51172973
Ti	19.96231376	22.01472900	5.48407538
Ti	10.33692463	16.77574492	5.68279986
Ti	10.46007619	27.36639161	5.52369977
Ti	25.71656766	16.75966946	5.46251014
Ti	25.70856983	27.38555486	5.59356864
Ti	14.21970771	16.63264728	5.70487664
Ti	14.10271993	27.14163922	5.44485767
Ti	29.54445736	16.77459372	5.75822680
Ti	29.53070079	27.22558174	5.53700431
Ti	17.99019641	16.83515275	5.45991475
Ti	17.98679560	27.31459905	5.43231190
O	21.74736961	17.77348764	3.92403480
O	21.83412245	28.32949823	4.02186839
O	8.55079141	12.59910354	3.96949258
O	8.42303908	23.00479808	3.95078253
O	23.66835183	12.42806931	3.90511610
O	23.73960666	23.16708691	3.96465861
O	8.50602643	20.13667912	5.06197911
O	8.54699259	30.73738140	4.65996836
O	23.88289857	20.06146415	4.88061126
O	23.69072043	30.35750580	4.84740084
O	21.78445001	14.70948609	4.78855332
O	21.76553432	25.46970418	4.74513792
O	21.88433398	10.87704516	5.73269922
O	21.88253006	21.48584460	5.74486541
O	8.41004859	16.25090130	5.99701489
O	8.55418756	26.91816074	5.76810182
O	23.77505491	16.36352144	5.71386751
O	23.79052415	26.87228392	5.77067158
O	8.25161423	13.27470979	6.38088551
O	8.86504320	23.87592507	6.39994791
O	23.76214981	13.18845937	6.37388038
O	23.80531924	23.92736528	6.28678717
O	21.71002902	18.37587523	6.36700923
O	21.55641106	29.09604141	6.41919434
O	10.32599808	17.78109795	4.02073040
O	10.47777361	28.37404838	3.98017250
O	25.77147807	17.86281737	3.86727641
O	25.80558647	28.32950249	3.96096752
O	14.22615453	17.81968633	3.97594150
O	14.14539738	28.26072258	3.81896945
O	29.52340385	17.80371221	4.04825006
O	29.73868298	28.37291301	3.97867709
O	17.97259390	17.96080772	3.90991724
O	17.91354158	28.27041841	3.88221822
O	12.57621210	12.62543791	3.92184580
O	12.15832652	23.03435005	3.92724266
O	27.63047727	12.60219198	3.98009716
O	27.87143735	23.10331484	3.91573129
O	16.18240529	12.64100872	3.91112133
O	15.99273281	23.07695603	3.86351895
O	19.69597635	12.41555685	3.95402101
O	19.77459214	23.00099581	3.91033066
O	12.22296645	20.07306822	4.80084082
O	12.38584326	30.67219213	4.86677287
O	27.66781873	20.20928191	4.84346523
O	27.61519228	30.66601264	4.72517964
O	16.12483556	20.15586641	4.84107307
O	16.02519729	30.63342852	4.80622795
O	19.90550699	20.14136048	4.74106349
O	19.84884631	30.61349174	4.77709292
O	10.30880898	14.92990791	4.73388046
O	10.39816639	25.47516926	4.81762294
O	25.64861905	14.82382871	4.96778812
O	25.63432537	25.43295223	4.93518981
O	14.22277837	14.86551277	4.70666818
O	14.14550963	25.25870852	4.78773055
O	29.63849638	14.91907686	4.96420710
O	29.47322088	25.46888644	4.55416846
O	18.11580493	14.86266172	4.74976193
O	17.97491388	25.40088973	4.78661942
O	10.43728859	11.15960926	5.77190472
O	10.35715435	21.44499430	5.61545740
O	25.63746502	10.92041721	5.84885180
O	25.79310408	21.54110741	5.63266024
O	14.35443410	11.04980992	5.71764738
O	14.16736555	21.51479509	5.75088600
O	29.48056622	10.96189819	5.94470678
O	29.56417901	21.62417388	5.91237484
O	18.05910054	10.95116875	5.70628541
O	18.04299442	21.44736596	5.74817729
O	12.22633900	16.20572071	5.55259183
O	12.28836072	26.64336439	5.73362572
O	27.61342636	16.23368998	5.68075083
O	27.54632436	26.86528990	5.76629616
O	16.19321344	16.31605707	5.71763715
O	16.05725944	26.76127629	5.61243219
O	19.97267919	16.13265779	5.90509731
O	19.78025132	26.78227997	5.67821578
O	12.14025437	13.35439572	6.27730633
O	12.27112184	23.77798838	6.36727597
O	27.63398289	13.20975033	6.51643403
O	27.67798731	23.84755047	6.30088708
O	16.09803012	13.40406188	6.35782183
O	16.23277563	23.71347736	6.33371270
O	19.98838752	13.13510662	6.32427632
O	19.95800554	23.82684514	6.33559550
O	10.42953891	18.47312539	6.49564449
O	10.26196266	29.08753834	6.46207658
O	25.89136493	18.51631327	6.27424641
O	25.83024541	29.15737954	6.33681810
O	14.08113357	18.52185490	6.40146307
O	14.29263236	28.93445508	6.36089905
O	29.24501797	18.54270386	6.43446181
O	29.45917025	29.01423974	6.36312987
O	18.14988702	18.52380091	6.35978788
O	17.96703153	28.98245369	6.33178239
H	12.53279422	14.54566565	7.75678681
H	12.52970808	15.31786773	11.10045490
H	15.57761664	17.59545609	9.09989789
O	14.33530354	16.07177274	7.50483108
O	12.76050933	14.87619475	8.66379722
C	13.74550737	15.75993777	8.60534255
C	14.02001990	16.46394893	9.86402441
C	13.30601081	16.10002885	11.03877058
C	14.93661150	17.50406535	9.90771196
N	13.01070673	19.97784128	15.27659877
N	15.95596152	22.05008828	17.30473102
N	15.76106485	20.17735265	14.89460596
N	13.00374170	21.83993835	17.65110172
C	21.51329009	20.37971768	16.21288671
C	15.01945059	24.72661199	22.57264300
C	7.30667899	21.08508937	17.12824058
C	19.28497230	21.32196911	15.77617269
C	14.62499850	24.18239993	20.21205076
C	9.64385232	20.34820465	17.01648699
C	21.25871287	22.48742530	15.05254874
C	14.92222446	26.47023997	20.91554400
C	7.78874678	18.79749025	17.40911066
C	14.21791929	18.91647260	13.43369737
C	17.85093268	21.21073618	15.93599585
C	14.58182665	23.21829080	19.03366072
C	11.07289775	20.57439767	16.76553274
C	15.48653972	19.29125059	13.89246791
C	17.12712080	20.41208586	14.99173562
C	13.39064410	22.54412122	18.76001981
C	11.70974290	21.44963147	17.69994064
C	16.75058981	18.84051818	13.38982868
C	17.76153671	19.51381399	14.01788311
C	12.21623737	22.57577887	19.62548560
C	11.22416200	21.82780220	19.01824724
C	13.04206745	19.23155933	14.06727889
C	17.30681870	22.03553494	16.95597510
C	15.78155646	22.98834392	18.30741669
C	11.70518125	19.94900724	15.69299101
C	11.67572473	18.89058522	13.64251413
C	17.98825392	22.82757537	17.91522094
C	17.10529740	23.42981084	18.73624826
C	10.89244890	19.39182643	14.58959100
H	11.36169318	18.42740163	12.68218862
H	19.08453338	22.95805284	17.84097255
H	17.41150810	23.82774309	19.67151657
H	9.81951638	19.27491274	14.69683450
H	16.90062789	18.03042414	12.67476793
H	18.82674722	19.34944000	13.87498646
H	12.09340039	23.14760621	20.57272643
H	10.24316525	21.59562854	19.41861085
H	21.67752628	23.37879957	14.53157832
H	15.01887403	27.54493481	20.59965817
H	7.50070731	17.79525928	17.65650010
H	22.23500823	19.65916426	16.68246653
H	15.18497768	24.35342672	23.62941220
H	6.64135829	21.95015605	16.91937899
H	15.02390091	20.64566237	15.49454991
H	13.53758912	21.63736011	16.77940228
C	23.57090740	21.40797288	15.24374877
H	23.62635814	21.12996478	14.23154711
H	24.01374636	20.59559438	15.85986817
H	24.15463060	22.34513936	15.33685567
C	19.49721239	19.26922420	17.16411670
H	20.22938654	18.56175106	17.50160518
H	18.65877273	18.87724055	16.61567441
H	18.98985761	19.81980350	17.97669660
C	18.96179571	23.43556465	14.43457693
H	19.46770841	24.48320544	14.37084395
H	18.04242943	23.61978478	14.98644504
H	18.69377591	23.03054209	13.39936008
C	10.05011812	17.83289625	17.38724277
H	9.73768214	17.15567434	18.22793556
H	11.02701957	18.14229487	17.49386484
H	9.96950999	17.29376077	16.43168593
C	8.99965131	22.82145237	16.49876808
H	8.03237601	23.33927001	16.35364879
H	9.61005445	22.75411279	15.57070198
H	9.67696890	23.24483865	17.23981318
C	5.39129110	19.34727796	17.35678344
H	4.66311539	20.12594815	17.67257818
H	5.30196225	18.49428097	18.11775851
H	5.13193046	19.09861374	16.28665490
C	14.82405453	25.94371726	18.44487403
H	13.85582422	26.03190301	17.99435241
H	15.50150970	25.29929533	17.91966192
H	15.25554660	27.01634998	18.43268546
C	14.71514183	22.29488795	21.93867243
H	15.22002568	21.73290355	21.12339180
H	13.65173724	22.07241540	21.92351946
H	15.17098606	22.08458705	22.90146206
C	15.36277974	27.08332573	23.33499248
H	16.15916243	27.72950366	22.91129711
H	15.81807650	26.60112921	24.16091694
H	14.50423465	27.69959170	23.63857785
C	22.08654753	21.45237548	15.51354580
C	20.10574181	20.33603512	16.34981799
C	19.86148859	22.41629710	15.09841061
C	14.77381801	25.56375128	19.87643945
C	14.79542102	23.76148813	21.58687088
C	15.06089140	26.07759521	22.22478268
C	9.17082812	19.03194717	17.33914531
C	8.67136759	21.37390084	16.94942685
C	6.81930922	19.77501366	17.35236476
H	13.07258084	16.49762868	13.16574351
H	15.64596505	19.23384892	11.08551479
C	14.23400103	18.06271622	12.18622690
C	13.49403718	16.84517738	12.19955946
C	15.02057797	18.32670783	11.04896931

Ti O H C N 0
6-31G*
****

