%chk=f00017706.chk
%mem=24GB
%nproc=12
#p b3lyp/6-31G*

title

0 1
Ti	2.81187400	0.19704000	1.10336000
Ti	0.90594400	5.44057000	1.10336000
Ti	4.71781400	5.44057000	1.10336000
Ti	0.90594400	2.47241000	1.99114000
Ti	4.71781400	2.47241000	1.99114000
Ti	2.81187400	7.71594000	1.99115000
O	2.81187400	8.81302000	0.37332000
O	0.90594400	3.56949000	0.37332000
O	4.71781400	3.56949000	0.37332000
O	0.90594400	0.60134000	1.26110000
O	4.71781400	0.60134000	1.26110000
O	2.81187400	5.84486000	1.26111000
O	2.81187400	2.06812000	1.83340000
O	0.90594400	7.31164000	1.83340000
O	4.71781400	7.31164000	1.83340000
O	0.90594400	4.34349000	2.72118000
O	4.71781400	4.34349000	2.72118000
O	2.81187400	9.58701000	2.72118000
Ti	6.62374588	0.19704000	1.10336000
Ti	21.87123776	0.19704000	1.10336000
Ti	8.52968588	5.44057000	1.10336000
Ti	23.77717776	5.44057000	1.10336000
Ti	8.52968588	2.47241000	1.99114000
Ti	23.77717776	2.47241000	1.99114000
Ti	6.62374588	7.71594000	1.99115000
Ti	21.87123776	7.71594000	1.99115000
Ti	10.43561588	0.19704000	1.10336000
Ti	25.68310776	0.19704000	1.10336000
Ti	14.24749588	0.19704000	1.10336000
Ti	29.49498776	0.19704000	1.10336000
Ti	18.05936588	0.19704000	1.10336000
Ti	12.34155588	5.44057000	1.10336000
Ti	27.58904776	5.44057000	1.10336000
Ti	16.15343588	5.44057000	1.10336000
Ti	19.96530588	5.44057000	1.10336000
Ti	12.34155588	2.47241000	1.99114000
Ti	27.58904776	2.47241000	1.99114000
Ti	16.15343588	2.47241000	1.99114000
Ti	19.96530588	2.47241000	1.99114000
Ti	10.43561588	7.71594000	1.99115000
Ti	25.68310776	7.71594000	1.99115000
Ti	14.24749588	7.71594000	1.99115000
Ti	29.49498776	7.71594000	1.99115000
Ti	18.05936588	7.71594000	1.99115000
O	6.62374588	8.81302000	0.37332000
O	21.87123776	8.81302000	0.37332000
O	8.52968588	3.56949000	0.37332000
O	23.77717776	3.56949000	0.37332000
O	8.52968588	0.60134000	1.26110000
O	23.77717776	0.60134000	1.26110000
O	6.62374588	5.84486000	1.26111000
O	21.87123776	5.84486000	1.26111000
O	6.62374588	2.06812000	1.83340000
O	21.87123776	2.06812000	1.83340000
O	8.52968588	7.31164000	1.83340000
O	23.77717776	7.31164000	1.83340000
O	8.52968588	4.34349000	2.72118000
O	23.77717776	4.34349000	2.72118000
O	6.62374588	9.58701000	2.72118000
O	21.87123776	9.58701000	2.72118000
O	10.43561588	8.81302000	0.37332000
O	25.68310776	8.81302000	0.37332000
O	14.24749588	8.81302000	0.37332000
O	29.49498776	8.81302000	0.37332000
O	18.05936588	8.81302000	0.37332000
O	12.34155588	3.56949000	0.37332000
O	27.58904776	3.56949000	0.37332000
O	16.15343588	3.56949000	0.37332000
O	19.96530588	3.56949000	0.37332000
O	12.34155588	0.60134000	1.26110000
O	27.58904776	0.60134000	1.26110000
O	16.15343588	0.60134000	1.26110000
O	19.96530588	0.60134000	1.26110000
O	10.43561588	5.84486000	1.26111000
O	25.68310776	5.84486000	1.26111000
O	14.24749588	5.84486000	1.26111000
O	29.49498776	5.84486000	1.26111000
O	18.05936588	5.84486000	1.26111000
O	10.43561588	2.06812000	1.83340000
O	25.68310776	2.06812000	1.83340000
O	14.24749588	2.06812000	1.83340000
O	29.49498776	2.06812000	1.83340000
O	18.05936588	2.06812000	1.83340000
O	12.34155588	7.31164000	1.83340000
O	27.58904776	7.31164000	1.83340000
O	16.15343588	7.31164000	1.83340000
O	19.96530588	7.31164000	1.83340000
O	12.34155588	4.34349000	2.72118000
O	27.58904776	4.34349000	2.72118000
O	16.15343588	4.34349000	2.72118000
O	19.96530588	4.34349000	2.72118000
O	10.43561588	9.58701000	2.72118000
O	25.68310776	9.58701000	2.72118000
O	14.24749588	9.58701000	2.72118000
O	29.49498776	9.58701000	2.72118000
O	18.05936588	9.58701000	2.72118000
Ti	2.81187400	10.68408607	1.10336000
Ti	2.81187400	21.17113214	1.10336000
Ti	0.90594400	15.92761607	1.10336000
Ti	0.90594400	26.41466214	1.10336000
Ti	4.71781400	15.92761607	1.10336000
Ti	4.71781400	26.41466214	1.10336000
Ti	0.90594400	12.95945607	1.99114000
Ti	0.90594400	23.44650214	1.99114000
Ti	4.71781400	12.95945607	1.99114000
Ti	4.71781400	23.44650214	1.99114000
Ti	2.81187400	18.20298607	1.99115000
Ti	2.81187400	28.69003214	1.99115000
O	2.81187400	19.30006607	0.37332000
O	2.81187400	29.78711214	0.37332000
O	0.90594400	14.05653607	0.37332000
O	0.90594400	24.54358214	0.37332000
O	4.71781400	14.05653607	0.37332000
O	4.71781400	24.54358214	0.37332000
O	0.90594400	11.08838607	1.26110000
O	0.90594400	21.57543214	1.26110000
O	4.71781400	11.08838607	1.26110000
O	4.71781400	21.57543214	1.26110000
O	2.81187400	16.33190607	1.26111000
O	2.81187400	26.81895214	1.26111000
O	2.81187400	12.55516607	1.83340000
O	2.81187400	23.04221214	1.83340000
O	0.90594400	17.79868607	1.83340000
O	0.90594400	28.28573214	1.83340000
O	4.71781400	17.79868607	1.83340000
O	4.71781400	28.28573214	1.83340000
O	0.90594400	14.83053607	2.72118000
O	0.90594400	25.31758214	2.72118000
O	4.71781400	14.83053607	2.72118000
O	4.71781400	25.31758214	2.72118000
O	2.81187400	20.07405607	2.72118000
O	2.81187400	30.56110214	2.72118000
Ti	6.62374588	10.68408607	1.10336000
Ti	6.62374588	21.17113214	1.10336000
Ti	21.87123776	10.68408607	1.10336000
Ti	21.87123776	21.17113214	1.10336000
Ti	8.52968588	15.92761607	1.10336000
Ti	8.52968588	26.41466214	1.10336000
Ti	23.77717776	15.92761607	1.10336000
Ti	23.77717776	26.41466214	1.10336000
Ti	8.52968588	12.95945607	1.99114000
Ti	8.52968588	23.44650214	1.99114000
Ti	23.77717776	12.95945607	1.99114000
Ti	23.77717776	23.44650214	1.99114000
Ti	6.62374588	18.20298607	1.99115000
Ti	6.62374588	28.69003214	1.99115000
Ti	21.87123776	18.20298607	1.99115000
Ti	21.87123776	28.69003214	1.99115000
Ti	10.43561588	10.68408607	1.10336000
Ti	10.43561588	21.17113214	1.10336000
Ti	25.68310776	10.68408607	1.10336000
Ti	25.68310776	21.17113214	1.10336000
Ti	14.24749588	10.68408607	1.10336000
Ti	14.24749588	21.17113214	1.10336000
Ti	29.49498776	10.68408607	1.10336000
Ti	29.49498776	21.17113214	1.10336000
Ti	18.05936588	10.68408607	1.10336000
Ti	18.05936588	21.17113214	1.10336000
Ti	12.34155588	15.92761607	1.10336000
Ti	12.34155588	26.41466214	1.10336000
Ti	27.58904776	15.92761607	1.10336000
Ti	27.58904776	26.41466214	1.10336000
Ti	16.15343588	15.92761607	1.10336000
Ti	16.15343588	26.41466214	1.10336000
Ti	19.96530588	15.92761607	1.10336000
Ti	19.96530588	26.41466214	1.10336000
Ti	12.34155588	12.95945607	1.99114000
Ti	12.34155588	23.44650214	1.99114000
Ti	27.58904776	12.95945607	1.99114000
Ti	27.58904776	23.44650214	1.99114000
Ti	16.15343588	12.95945607	1.99114000
Ti	16.15343588	23.44650214	1.99114000
Ti	19.96530588	12.95945607	1.99114000
Ti	19.96530588	23.44650214	1.99114000
Ti	10.43561588	18.20298607	1.99115000
Ti	10.43561588	28.69003214	1.99115000
Ti	25.68310776	18.20298607	1.99115000
Ti	25.68310776	28.69003214	1.99115000
Ti	14.24749588	18.20298607	1.99115000
Ti	14.24749588	28.69003214	1.99115000
Ti	29.49498776	18.20298607	1.99115000
Ti	29.49498776	28.69003214	1.99115000
Ti	18.05936588	18.20298607	1.99115000
Ti	18.05936588	28.69003214	1.99115000
O	6.62374588	19.30006607	0.37332000
O	6.62374588	29.78711214	0.37332000
O	21.87123776	19.30006607	0.37332000
O	21.87123776	29.78711214	0.37332000
O	8.52968588	14.05653607	0.37332000
O	8.52968588	24.54358214	0.37332000
O	23.77717776	14.05653607	0.37332000
O	23.77717776	24.54358214	0.37332000
O	8.52968588	11.08838607	1.26110000
O	8.52968588	21.57543214	1.26110000
O	23.77717776	11.08838607	1.26110000
O	23.77717776	21.57543214	1.26110000
O	6.62374588	16.33190607	1.26111000
O	6.62374588	26.81895214	1.26111000
O	21.87123776	16.33190607	1.26111000
O	21.87123776	26.81895214	1.26111000
O	6.62374588	12.55516607	1.83340000
O	6.62374588	23.04221214	1.83340000
O	21.87123776	12.55516607	1.83340000
O	21.87123776	23.04221214	1.83340000
O	8.52968588	17.79868607	1.83340000
O	8.52968588	28.28573214	1.83340000
O	23.77717776	17.79868607	1.83340000
O	23.77717776	28.28573214	1.83340000
O	8.52968588	14.83053607	2.72118000
O	8.52968588	25.31758214	2.72118000
O	23.77717776	14.83053607	2.72118000
O	23.77717776	25.31758214	2.72118000
O	6.62374588	20.07405607	2.72118000
O	6.62374588	30.56110214	2.72118000
O	21.87123776	20.07405607	2.72118000
O	21.87123776	30.56110214	2.72118000
O	10.43561588	19.30006607	0.37332000
O	10.43561588	29.78711214	0.37332000
O	25.68310776	19.30006607	0.37332000
O	25.68310776	29.78711214	0.37332000
O	14.24749588	19.30006607	0.37332000
O	14.24749588	29.78711214	0.37332000
O	29.49498776	19.30006607	0.37332000
O	29.49498776	29.78711214	0.37332000
O	18.05936588	19.30006607	0.37332000
O	18.05936588	29.78711214	0.37332000
O	12.34155588	14.05653607	0.37332000
O	12.34155588	24.54358214	0.37332000
O	27.58904776	14.05653607	0.37332000
O	27.58904776	24.54358214	0.37332000
O	16.15343588	14.05653607	0.37332000
O	16.15343588	24.54358214	0.37332000
O	19.96530588	14.05653607	0.37332000
O	19.96530588	24.54358214	0.37332000
O	12.34155588	11.08838607	1.26110000
O	12.34155588	21.57543214	1.26110000
O	27.58904776	11.08838607	1.26110000
O	27.58904776	21.57543214	1.26110000
O	16.15343588	11.08838607	1.26110000
O	16.15343588	21.57543214	1.26110000
O	19.96530588	11.08838607	1.26110000
O	19.96530588	21.57543214	1.26110000
O	10.43561588	16.33190607	1.26111000
O	10.43561588	26.81895214	1.26111000
O	25.68310776	16.33190607	1.26111000
O	25.68310776	26.81895214	1.26111000
O	14.24749588	16.33190607	1.26111000
O	14.24749588	26.81895214	1.26111000
O	29.49498776	16.33190607	1.26111000
O	29.49498776	26.81895214	1.26111000
O	18.05936588	16.33190607	1.26111000
O	18.05936588	26.81895214	1.26111000
O	10.43561588	12.55516607	1.83340000
O	10.43561588	23.04221214	1.83340000
O	25.68310776	12.55516607	1.83340000
O	25.68310776	23.04221214	1.83340000
O	14.24749588	12.55516607	1.83340000
O	14.24749588	23.04221214	1.83340000
O	29.49498776	12.55516607	1.83340000
O	29.49498776	23.04221214	1.83340000
O	18.05936588	12.55516607	1.83340000
O	18.05936588	23.04221214	1.83340000
O	12.34155588	17.79868607	1.83340000
O	12.34155588	28.28573214	1.83340000
O	27.58904776	17.79868607	1.83340000
O	27.58904776	28.28573214	1.83340000
O	16.15343588	17.79868607	1.83340000
O	16.15343588	28.28573214	1.83340000
O	19.96530588	17.79868607	1.83340000
O	19.96530588	28.28573214	1.83340000
O	12.34155588	14.83053607	2.72118000
O	12.34155588	25.31758214	2.72118000
O	27.58904776	14.83053607	2.72118000
O	27.58904776	25.31758214	2.72118000
O	16.15343588	14.83053607	2.72118000
O	16.15343588	25.31758214	2.72118000
O	19.96530588	14.83053607	2.72118000
O	19.96530588	25.31758214	2.72118000
O	10.43561588	20.07405607	2.72118000
O	10.43561588	30.56110214	2.72118000
O	25.68310776	20.07405607	2.72118000
O	25.68310776	30.56110214	2.72118000
O	14.24749588	20.07405607	2.72118000
O	14.24749588	30.56110214	2.72118000
O	29.49498776	20.07405607	2.72118000
O	29.49498776	30.56110214	2.72118000
O	18.05936588	20.07405607	2.72118000
O	18.05936588	30.56110214	2.72118000
Ti	6.71199240	9.21878210	4.79079880
Ti	6.69848385	6.28317111	5.47775739
Ti	2.88485132	9.14714375	4.70531632
Ti	0.98375291	4.04876869	4.68658271
Ti	4.83777205	3.98914662	4.74282276
Ti	0.96086084	1.01637361	5.49615106
Ti	4.75150127	1.09394235	5.51834150
Ti	2.96472888	6.21478391	5.47570809
O	6.66578963	7.40505348	3.90516612
O	6.76815504	4.36610783	4.73356945
O	6.67129274	0.65012543	5.88855395
O	6.56890212	7.94732001	6.29226388
O	2.70055695	7.26270932	3.85249656
O	0.90674391	2.12311810	3.88819339
O	4.85883549	2.14960769	3.97040321
O	0.87514741	9.57423448	4.79027136
O	4.75583529	9.70565782	4.85636020
O	2.87359385	4.43426466	4.65499907
O	2.90048313	0.51769776	5.99488649
O	0.94034863	5.75622029	5.94414141
O	4.85083472	5.65039008	5.87435355
O	1.11840581	2.78276430	6.19263176
O	4.77607046	2.85932663	6.44656578
O	2.91071693	7.93883024	6.34640226
Ti	21.76128348	9.21523430	4.62775806
Ti	8.64412276	4.07627676	4.69266992
Ti	23.83158403	4.03100467	4.63964073
Ti	8.60331295	1.12098793	5.54131882
Ti	23.80348799	1.15198542	5.54407001
Ti	21.94232322	6.28949637	5.40139033
Ti	10.54934613	9.23250738	4.77985248
Ti	25.62720629	9.20944690	4.70647671
Ti	14.27997593	9.22690432	4.82333216
Ti	29.45820730	9.20331421	4.79616726
Ti	17.99511434	9.18449682	4.78155768
Ti	12.37066445	3.95375982	4.72029475
Ti	27.57377130	4.02500029	4.75474029
Ti	16.25937613	3.94678745	4.80364748
Ti	19.93125061	3.84720054	4.78317107
Ti	12.38630941	1.00976132	5.55145640
Ti	27.55601214	1.18611325	5.53456957
Ti	16.24328587	1.07719383	5.58186184
Ti	20.00585078	0.95006289	5.41804179
Ti	10.55162702	6.32345078	5.48128110
Ti	25.66666503	6.29881885	5.51388999
Ti	14.34186890	6.22723837	5.53899316
Ti	29.49777850	6.25946913	5.55745004
Ti	18.04850182	6.28214298	5.39071770
O	21.86254414	7.28183489	3.87232261
O	8.59129546	2.15470869	3.96378382
O	23.64515665	2.16421434	3.98994338
O	8.57550134	9.61028542	4.85886483
O	23.73849593	9.54548959	4.67787666
O	21.80958488	4.42414839	4.65935046
O	21.83032112	0.59241151	5.80167460
O	8.64322317	5.93510648	5.67707758
O	23.80274960	5.84006903	5.75629857
O	8.56919553	2.86119681	6.34771469
O	23.80298184	2.92702494	6.40962358
O	21.78867632	8.03238519	6.24991391
O	10.54944229	7.36740101	3.94186558
O	25.69084062	7.24786446	3.93520680
O	14.05341011	7.30980322	3.92011780
O	29.30888064	7.29078689	3.90617510
O	17.92417371	7.43854874	3.90615021
O	12.32539018	1.97675555	3.91392027
O	27.68369455	2.10223803	3.87434945
O	16.06610507	2.16319761	3.96078364
O	20.08932856	2.10577036	3.94366926
O	12.39310469	9.68869956	4.72880588
O	27.61185015	9.66673512	4.74759874
O	16.14133795	9.66225473	4.84176787
O	19.82506648	9.69797075	4.83865791
O	10.53443579	4.53474355	4.69938596
O	25.74388831	4.48964399	4.81959467
O	14.24767645	4.37181902	4.72227746
O	29.55709263	4.36407687	4.69594255
O	18.12928289	4.38162824	4.71698643
O	10.46099292	0.46985520	5.77251208
O	25.72798595	0.64004302	5.82864388
O	14.33236785	0.76031080	5.71321952
O	29.53621567	0.64059380	5.81019904
O	18.08060584	0.54410131	5.77319815
O	12.42119283	5.76814430	5.83712097
O	27.60604564	5.76022804	5.82948046
O	16.21210872	5.78424264	5.79492853
O	19.89318036	5.74452673	5.76965770
O	12.33256216	2.85990300	6.38205631
O	27.82865394	2.88707215	6.30941622
O	16.34753940	2.82805125	6.47346022
O	19.79413299	2.71155358	6.42653091
O	10.47125261	8.10480151	6.42416485
O	25.68960576	8.11188015	6.25735976
O	14.14048189	8.05367584	6.42004575
O	29.51580516	7.96351716	6.31633217
O	18.23321880	7.89124925	6.40327398
Ti	6.73269228	19.74367994	4.79394653
Ti	6.68451551	30.35891476	4.75060465
Ti	6.45032642	16.75466665	5.49638799
Ti	6.57695040	27.52879257	5.53196074
Ti	2.88754328	19.69836975	4.73625209
Ti	2.86822540	30.26982662	4.82351875
Ti	0.96864571	14.36279196	4.68215034
Ti	0.85675753	24.97368500	4.85560256
Ti	4.67242981	14.48207226	4.76815457
Ti	4.62023400	24.94834952	4.78561816
Ti	0.88919210	11.50496704	5.56232250
Ti	0.97810198	22.09437044	5.54207116
Ti	4.56251653	11.55097076	5.60900632
Ti	4.84386884	22.01882315	5.41176921
Ti	2.81038901	16.87272178	5.69569226
Ti	2.76326072	27.35380832	5.64205405
O	6.46837767	17.85792675	3.97318288
O	6.72606621	28.48232824	3.95562140
O	6.47973021	14.96060353	4.70274445
O	6.56858579	25.56834395	4.73284418
O	6.59018295	11.09797853	5.79477604
O	6.72368418	21.63850127	5.62799994
O	6.59219589	18.50328839	6.32890376
O	6.51470493	29.20656912	6.33330883
O	2.78219682	17.78772494	3.96896079
O	2.83570271	28.44197514	4.08631119
O	0.90931546	12.58289825	3.99323242
O	0.80005154	23.16409304	3.99763132
O	4.74109187	12.59875792	3.90520872
O	5.01777979	23.10265806	3.89082930
O	0.99791464	20.17819083	4.90338118
O	0.95593980	30.60185210	4.95062949
O	4.80267536	20.20716187	4.78513974
O	4.75384683	30.81124378	4.75051258
O	2.80408789	15.08229174	4.95735462
O	2.71476194	25.48997202	4.74202038
O	2.76401513	10.89199731	5.90778899
O	2.94164942	21.59329497	5.83602430
O	0.85160432	16.69767696	6.36335073
O	0.82297938	26.74670771	5.94657528
O	4.66481418	16.42580477	6.02856455
O	4.58599947	26.81493301	5.87604293
O	0.82045616	13.26164469	6.30006475
O	0.87590661	23.74708528	6.45857389
O	4.65691581	13.39609254	6.34475962
O	4.70515547	23.71445980	6.41107131
O	3.03528406	18.62391903	6.40984434
O	2.57076619	29.18618339	6.51759818
Ti	21.77495886	19.66458837	4.74883884
Ti	21.92334583	30.14502766	4.80578950
Ti	8.31893629	14.45434005	4.74267137
Ti	8.47243426	25.09372669	4.71361205
Ti	23.68003706	14.34580036	4.75064396
Ti	23.69913810	24.92919865	4.70625431
Ti	8.53559811	11.48880930	5.50248003
Ti	8.66239193	22.09980646	5.52812641
Ti	23.64730638	11.44306965	5.51322557
Ti	23.83014508	21.99893844	5.48948198
Ti	21.91707610	16.72944844	5.50913353
Ti	21.99464589	27.21584017	5.57987827
Ti	10.55953815	19.67745570	4.73614249
Ti	10.49495492	30.22278090	4.79157730
Ti	25.65829489	19.60536087	4.77985059
Ti	25.66607691	30.18082308	4.74071131
Ti	14.25539155	19.74254833	4.79896742
Ti	14.31555965	30.23408661	4.80396065
Ti	29.54068296	19.85373984	4.70316272
Ti	29.52274595	30.22047401	4.78254709
Ti	17.98913068	19.69474517	4.81435706
Ti	18.02443114	30.19339835	4.95631000
Ti	12.28540600	14.45194529	4.87698652
Ti	12.36726639	24.99991500	4.75023959
Ti	27.77456252	14.49773340	4.75485114
Ti	27.51056399	24.97317473	4.77877006
Ti	16.11025175	14.49748943	4.66465097
Ti	16.28205636	24.91744947	4.75835596
Ti	19.87396575	14.42129200	4.71145075
Ti	19.99302592	24.83385865	4.65725227
Ti	12.28833108	11.54481248	5.49348253
Ti	12.32261129	22.08898240	5.43637446
Ti	27.59600863	11.53140031	5.38381059
Ti	27.58219039	22.06137258	5.40964604
Ti	16.09118811	11.56885045	5.51432285
Ti	16.14017308	22.04592249	5.62934959
Ti	19.83454261	11.49828121	5.36354732
Ti	20.02058839	21.99567131	5.57980223
Ti	10.22523044	16.81474178	5.51316077
Ti	10.40884052	27.28208085	5.56214944
Ti	25.77067829	16.61613800	5.48082225
Ti	25.63133277	27.33838826	5.56531522
Ti	14.14420747	16.64342718	5.67737187
Ti	14.28416237	27.20186838	5.31887815
Ti	29.56937795	16.96977498	5.65228974
Ti	29.40578135	27.27010969	5.63603154
Ti	18.03150844	16.76341859	5.53516655
Ti	18.12714227	27.18759865	5.45332417
O	21.75904320	17.82664660	3.92809473
O	21.90974773	28.29800813	3.94208163
O	8.57220732	12.63904564	3.94277846
O	8.49257293	23.24574226	3.98873557
O	23.89376455	12.43248210	3.94502226
O	23.66968810	23.07232154	3.90991977
O	8.62104739	20.18046595	4.81401190
O	8.54688838	30.73784510	4.77978356
O	23.70816277	20.09930672	4.68047184
O	23.75773955	30.80732567	4.73440671
O	21.78084303	14.84962978	4.79760997
O	21.84469759	25.36528619	4.98706996
O	21.74985518	10.95688029	5.59244806
O	21.93544124	21.45624119	5.69860095
O	8.34483610	16.26422520	5.67332447
O	8.57724352	26.88539246	5.83754720
O	23.77850761	16.11308473	5.76063361
O	23.81602874	26.81515913	5.88818028
O	8.18612494	13.27241185	6.29599476
O	8.60636089	23.95055048	6.33704865
O	23.72250955	13.13827636	6.43585683
O	23.91729789	23.82090932	6.25163522
O	21.77336099	18.44641507	6.31359969
O	21.99446789	28.97666246	6.34375078
O	10.60735821	17.83632579	3.92015760
O	10.60008140	28.32437773	3.92317205
O	25.59896537	17.77226041	3.97586053
O	25.58738756	28.33632071	3.91933722
O	13.99889228	17.82786808	3.94810841
O	14.38548220	28.38724694	3.84819946
O	29.61023179	17.94288993	3.99796445
O	29.54685905	28.37159547	3.98039637
O	17.90258437	17.86688992	3.94867411
O	17.98356665	28.32157301	3.97866323
O	12.33665809	12.58539085	3.93852372
O	12.18792018	23.16724755	3.90771980
O	27.76185324	12.64168302	3.91687277
O	27.67184571	23.15537883	3.95971908
O	16.12972836	12.56843685	3.96001044
O	16.21902063	23.01674128	3.98257782
O	19.84627082	12.57855320	3.89723859
O	20.10123204	22.96268824	3.89689301
O	12.41831769	20.29696973	4.59984415
O	12.39828676	30.63241594	4.95464496
O	27.56328076	20.21635712	4.65298530
O	27.64368651	30.74690059	4.79381883
O	16.14391325	20.15803917	4.82403268
O	16.19972534	30.69661025	4.78874595
O	19.94978935	20.18697136	4.80102723
O	19.98638982	30.48608298	4.83597553
O	10.29471260	14.79783058	4.77774598
O	10.46863090	25.45217349	4.87907445
O	25.81425304	14.80065919	4.83585113
O	25.59078849	25.52723997	4.73862820
O	14.16985227	14.96262734	4.70688274
O	14.32944589	25.45793473	4.57511859
O	29.64991810	15.12335272	4.69207671
O	29.40806860	25.48726964	4.85445809
O	18.00653112	14.80682876	4.91051662
O	18.12704542	25.35207817	4.67183300
O	10.47323801	11.04132564	5.73848523
O	10.45943401	21.57705098	5.74617897
O	25.62779109	11.06599280	5.71039087
O	25.60741739	21.56155605	5.65491199
O	14.21750624	11.17009950	5.64510504
O	14.19668498	21.60384168	5.84270276
O	29.45921135	10.96899273	5.87777537
O	29.47897066	21.64950061	5.59929510
O	17.89184988	11.06471581	5.83432744
O	18.06551976	21.50815438	5.84331023
O	12.11481650	16.32159578	5.72890318
O	12.38994432	26.86783794	5.68155674
O	27.69138034	16.31307613	5.78262189
O	27.49026804	26.91501040	5.84180638
O	16.12113119	16.30106416	5.53144501
O	16.19216483	26.81768603	5.70353840
O	19.97299928	16.38239836	5.63446879
O	20.00849880	26.89286278	5.82895355
O	12.27724970	13.33125386	6.42327216
O	12.55933535	23.74355438	6.31785638
O	27.65422652	13.29143740	6.33418627
O	27.30537945	23.73626519	6.28304838
O	16.04097320	13.44691467	6.28923722
O	16.18537416	23.80421847	6.40301670
O	19.99369445	13.11503320	6.39268029
O	20.06054504	23.73279331	6.31899980
O	10.34593715	18.64004544	6.31909721
O	10.36784861	29.02490049	6.36436722
O	25.78924616	18.40242170	6.34869889
O	25.54283628	29.14993021	6.36071539
O	13.91528313	18.48887834	6.33261853
O	14.31500468	28.99105641	6.25860149
O	29.46420292	18.81989984	6.35402305
O	29.47167807	29.12313254	6.39236350
O	17.98461456	18.46845483	6.35321953
O	18.05672951	28.93694543	6.38378592
H	14.46208624	13.64659193	7.91870912
H	14.17398068	14.78806433	11.16563866
H	14.18882072	18.24348456	8.61055440
O	14.39815166	15.79128749	7.35589404
O	14.41845791	14.13076757	8.79673631
C	14.30383652	15.47982423	8.61939113
C	14.09848520	16.37489794	9.73200968
C	14.00808604	15.88808407	11.07486217
C	14.05597379	17.80412725	9.63800757
N	13.01359698	19.49463467	15.45746140
N	15.54699969	22.19092503	17.12685422
N	15.48197294	20.53726884	14.62281931
N	13.06061440	21.14437900	17.94484006
C	21.07040004	22.68619102	15.36652502
C	15.23174721	24.13540970	22.67792808
C	7.39686540	19.78390493	17.26957227
C	18.67194854	22.62301027	15.03448410
C	14.51775943	23.58007155	20.40344025
C	9.75959922	19.36665540	17.44639274
C	19.99085829	24.48295259	14.15617482
C	14.36118829	25.89705249	21.25907566
C	8.20730197	17.98982781	18.74055959
C	14.18948579	18.86852675	13.33073574
C	17.28575225	22.07750020	15.33525896
C	14.44387838	22.64771076	19.25079136
C	11.18135260	19.77718693	17.13323397
C	15.26415335	19.74491969	13.51041861
C	16.67795321	21.15423258	14.45869565
C	13.34300857	21.82857845	19.06509944
C	11.71927981	20.73678695	17.97203421
C	16.29424224	20.03090591	12.55737556
C	17.16050188	20.98733898	13.11857944
C	12.17262671	21.85185782	19.93853431
C	11.22655531	21.11660025	19.27563593
C	13.19978756	18.74928947	14.32822692
C	16.75863046	22.59700720	16.52909099
C	15.52544516	22.72125666	18.38785885
C	11.80286340	19.14165575	16.02582695
C	12.04750741	17.90227583	14.18135162
C	17.51694838	23.34986858	17.51540525
C	16.72786564	23.47232214	18.65566371
C	11.21773147	18.09696761	15.21329722
H	11.87509105	17.19832243	13.33463002
H	18.56331244	23.57549314	17.24495250
H	17.02398690	23.97480036	19.60853464
H	10.23951098	17.67927434	15.46039488
H	16.46802229	19.52472034	11.61912380
H	18.15104953	21.21739875	12.77091703
H	12.13198898	22.34371304	20.96423116
H	10.15323350	21.06617817	19.56817917
H	20.01040166	25.46431944	13.67673019
H	14.10233275	26.90844694	21.02078230
H	8.09208445	17.16998889	19.43134668
H	21.94164107	22.05098868	15.56006471
H	15.59780739	23.84823120	23.62955820
H	6.59494620	20.46873075	17.04803798
H	14.93984295	20.61388666	15.50873335
H	13.53051344	21.09534660	17.01737867
C	22.46502857	24.54446209	14.33591084
H	22.51516807	24.85163876	13.29432094
H	23.30559285	23.86282570	14.57621010
H	22.75221775	25.45735533	14.94560260
C	19.70264363	20.69013905	16.20547697
H	20.20863317	20.66168111	17.17494222
H	20.12467496	19.91794006	15.59995617
H	18.60351898	20.54266305	16.30647459
C	17.53732141	24.53426005	13.78350450
H	17.78711245	25.47403608	13.32164864
H	16.77861583	24.77492192	14.51416581
H	17.15363752	23.88506895	13.02847644
C	10.61058814	17.57653334	19.02373519
H	11.55335979	18.15824447	19.16952912
H	11.00198013	16.75873737	18.40560525
H	10.30961298	17.08298196	19.94498923
C	8.92502560	21.29722361	16.08572859
H	9.51450263	21.14102961	15.17228610
H	9.57430803	22.00092913	16.67564102
H	7.98292060	21.78557368	15.91091313
C	5.68814307	18.49239970	18.52690639
H	5.10864022	19.41632868	18.42747505
H	5.55229861	18.18450283	19.61230404
H	5.15749366	17.68429704	17.99635222
C	13.65016593	25.41988411	18.93997417
H	14.28926809	26.23424974	18.48648635
H	12.70606913	26.02912932	19.13746045
H	13.51182575	24.52614739	18.32358860
C	15.21091804	21.67932679	21.96776336
H	16.06774190	21.29894249	21.46336795
H	14.29627005	21.15394998	21.69476077
H	15.35904280	21.51640575	23.05538719
C	15.08928095	26.31748599	23.72351515
H	14.54710349	27.26383459	23.62753648
H	16.15443769	26.46730416	23.90852542
H	14.66853476	25.84937053	24.62725952
C	21.16408151	23.89846878	14.62831043
C	19.81519413	22.03583992	15.51688628
C	18.74512914	23.85383887	14.29185074
C	14.27701275	24.95196585	20.22255056
C	15.07713859	23.14957055	21.63705655
C	14.92864024	25.44698794	22.47885433
C	9.51261237	18.32237665	18.35246915
C	8.68814657	20.11087668	16.88488706
C	7.12253962	18.67603113	18.12954206
H	14.21393190	16.17804341	13.23864814
H	14.00944999	19.72087913	10.80008370
C	14.08507482	18.05095101	12.08629303
C	14.12955173	16.67264947	12.25086989
C	13.95885616	18.60285923	10.82444283

Ti O H C N 0
6-31G*
****

