%chk=f00015097.chk
%mem=24GB
%nproc=12
#p b3lyp/6-31G*

title

0 1
Ti	2.81187400	0.19704000	1.10336000
Ti	0.90594400	5.44057000	1.10336000
Ti	4.71781400	5.44057000	1.10336000
Ti	0.90594400	2.47241000	1.99114000
Ti	4.71781400	2.47241000	1.99114000
Ti	2.81187400	7.71594000	1.99115000
O	2.81187400	8.81302000	0.37332000
O	0.90594400	3.56949000	0.37332000
O	4.71781400	3.56949000	0.37332000
O	0.90594400	0.60134000	1.26110000
O	4.71781400	0.60134000	1.26110000
O	2.81187400	5.84486000	1.26111000
O	2.81187400	2.06812000	1.83340000
O	0.90594400	7.31164000	1.83340000
O	4.71781400	7.31164000	1.83340000
O	0.90594400	4.34349000	2.72118000
O	4.71781400	4.34349000	2.72118000
O	2.81187400	9.58701000	2.72118000
Ti	6.62374588	0.19704000	1.10336000
Ti	21.87123776	0.19704000	1.10336000
Ti	8.52968588	5.44057000	1.10336000
Ti	23.77717776	5.44057000	1.10336000
Ti	8.52968588	2.47241000	1.99114000
Ti	23.77717776	2.47241000	1.99114000
Ti	6.62374588	7.71594000	1.99115000
Ti	21.87123776	7.71594000	1.99115000
Ti	10.43561588	0.19704000	1.10336000
Ti	25.68310776	0.19704000	1.10336000
Ti	14.24749588	0.19704000	1.10336000
Ti	29.49498776	0.19704000	1.10336000
Ti	18.05936588	0.19704000	1.10336000
Ti	12.34155588	5.44057000	1.10336000
Ti	27.58904776	5.44057000	1.10336000
Ti	16.15343588	5.44057000	1.10336000
Ti	19.96530588	5.44057000	1.10336000
Ti	12.34155588	2.47241000	1.99114000
Ti	27.58904776	2.47241000	1.99114000
Ti	16.15343588	2.47241000	1.99114000
Ti	19.96530588	2.47241000	1.99114000
Ti	10.43561588	7.71594000	1.99115000
Ti	25.68310776	7.71594000	1.99115000
Ti	14.24749588	7.71594000	1.99115000
Ti	29.49498776	7.71594000	1.99115000
Ti	18.05936588	7.71594000	1.99115000
O	6.62374588	8.81302000	0.37332000
O	21.87123776	8.81302000	0.37332000
O	8.52968588	3.56949000	0.37332000
O	23.77717776	3.56949000	0.37332000
O	8.52968588	0.60134000	1.26110000
O	23.77717776	0.60134000	1.26110000
O	6.62374588	5.84486000	1.26111000
O	21.87123776	5.84486000	1.26111000
O	6.62374588	2.06812000	1.83340000
O	21.87123776	2.06812000	1.83340000
O	8.52968588	7.31164000	1.83340000
O	23.77717776	7.31164000	1.83340000
O	8.52968588	4.34349000	2.72118000
O	23.77717776	4.34349000	2.72118000
O	6.62374588	9.58701000	2.72118000
O	21.87123776	9.58701000	2.72118000
O	10.43561588	8.81302000	0.37332000
O	25.68310776	8.81302000	0.37332000
O	14.24749588	8.81302000	0.37332000
O	29.49498776	8.81302000	0.37332000
O	18.05936588	8.81302000	0.37332000
O	12.34155588	3.56949000	0.37332000
O	27.58904776	3.56949000	0.37332000
O	16.15343588	3.56949000	0.37332000
O	19.96530588	3.56949000	0.37332000
O	12.34155588	0.60134000	1.26110000
O	27.58904776	0.60134000	1.26110000
O	16.15343588	0.60134000	1.26110000
O	19.96530588	0.60134000	1.26110000
O	10.43561588	5.84486000	1.26111000
O	25.68310776	5.84486000	1.26111000
O	14.24749588	5.84486000	1.26111000
O	29.49498776	5.84486000	1.26111000
O	18.05936588	5.84486000	1.26111000
O	10.43561588	2.06812000	1.83340000
O	25.68310776	2.06812000	1.83340000
O	14.24749588	2.06812000	1.83340000
O	29.49498776	2.06812000	1.83340000
O	18.05936588	2.06812000	1.83340000
O	12.34155588	7.31164000	1.83340000
O	27.58904776	7.31164000	1.83340000
O	16.15343588	7.31164000	1.83340000
O	19.96530588	7.31164000	1.83340000
O	12.34155588	4.34349000	2.72118000
O	27.58904776	4.34349000	2.72118000
O	16.15343588	4.34349000	2.72118000
O	19.96530588	4.34349000	2.72118000
O	10.43561588	9.58701000	2.72118000
O	25.68310776	9.58701000	2.72118000
O	14.24749588	9.58701000	2.72118000
O	29.49498776	9.58701000	2.72118000
O	18.05936588	9.58701000	2.72118000
Ti	2.81187400	10.68408607	1.10336000
Ti	2.81187400	21.17113214	1.10336000
Ti	0.90594400	15.92761607	1.10336000
Ti	0.90594400	26.41466214	1.10336000
Ti	4.71781400	15.92761607	1.10336000
Ti	4.71781400	26.41466214	1.10336000
Ti	0.90594400	12.95945607	1.99114000
Ti	0.90594400	23.44650214	1.99114000
Ti	4.71781400	12.95945607	1.99114000
Ti	4.71781400	23.44650214	1.99114000
Ti	2.81187400	18.20298607	1.99115000
Ti	2.81187400	28.69003214	1.99115000
O	2.81187400	19.30006607	0.37332000
O	2.81187400	29.78711214	0.37332000
O	0.90594400	14.05653607	0.37332000
O	0.90594400	24.54358214	0.37332000
O	4.71781400	14.05653607	0.37332000
O	4.71781400	24.54358214	0.37332000
O	0.90594400	11.08838607	1.26110000
O	0.90594400	21.57543214	1.26110000
O	4.71781400	11.08838607	1.26110000
O	4.71781400	21.57543214	1.26110000
O	2.81187400	16.33190607	1.26111000
O	2.81187400	26.81895214	1.26111000
O	2.81187400	12.55516607	1.83340000
O	2.81187400	23.04221214	1.83340000
O	0.90594400	17.79868607	1.83340000
O	0.90594400	28.28573214	1.83340000
O	4.71781400	17.79868607	1.83340000
O	4.71781400	28.28573214	1.83340000
O	0.90594400	14.83053607	2.72118000
O	0.90594400	25.31758214	2.72118000
O	4.71781400	14.83053607	2.72118000
O	4.71781400	25.31758214	2.72118000
O	2.81187400	20.07405607	2.72118000
O	2.81187400	30.56110214	2.72118000
Ti	6.62374588	10.68408607	1.10336000
Ti	6.62374588	21.17113214	1.10336000
Ti	21.87123776	10.68408607	1.10336000
Ti	21.87123776	21.17113214	1.10336000
Ti	8.52968588	15.92761607	1.10336000
Ti	8.52968588	26.41466214	1.10336000
Ti	23.77717776	15.92761607	1.10336000
Ti	23.77717776	26.41466214	1.10336000
Ti	8.52968588	12.95945607	1.99114000
Ti	8.52968588	23.44650214	1.99114000
Ti	23.77717776	12.95945607	1.99114000
Ti	23.77717776	23.44650214	1.99114000
Ti	6.62374588	18.20298607	1.99115000
Ti	6.62374588	28.69003214	1.99115000
Ti	21.87123776	18.20298607	1.99115000
Ti	21.87123776	28.69003214	1.99115000
Ti	10.43561588	10.68408607	1.10336000
Ti	10.43561588	21.17113214	1.10336000
Ti	25.68310776	10.68408607	1.10336000
Ti	25.68310776	21.17113214	1.10336000
Ti	14.24749588	10.68408607	1.10336000
Ti	14.24749588	21.17113214	1.10336000
Ti	29.49498776	10.68408607	1.10336000
Ti	29.49498776	21.17113214	1.10336000
Ti	18.05936588	10.68408607	1.10336000
Ti	18.05936588	21.17113214	1.10336000
Ti	12.34155588	15.92761607	1.10336000
Ti	12.34155588	26.41466214	1.10336000
Ti	27.58904776	15.92761607	1.10336000
Ti	27.58904776	26.41466214	1.10336000
Ti	16.15343588	15.92761607	1.10336000
Ti	16.15343588	26.41466214	1.10336000
Ti	19.96530588	15.92761607	1.10336000
Ti	19.96530588	26.41466214	1.10336000
Ti	12.34155588	12.95945607	1.99114000
Ti	12.34155588	23.44650214	1.99114000
Ti	27.58904776	12.95945607	1.99114000
Ti	27.58904776	23.44650214	1.99114000
Ti	16.15343588	12.95945607	1.99114000
Ti	16.15343588	23.44650214	1.99114000
Ti	19.96530588	12.95945607	1.99114000
Ti	19.96530588	23.44650214	1.99114000
Ti	10.43561588	18.20298607	1.99115000
Ti	10.43561588	28.69003214	1.99115000
Ti	25.68310776	18.20298607	1.99115000
Ti	25.68310776	28.69003214	1.99115000
Ti	14.24749588	18.20298607	1.99115000
Ti	14.24749588	28.69003214	1.99115000
Ti	29.49498776	18.20298607	1.99115000
Ti	29.49498776	28.69003214	1.99115000
Ti	18.05936588	18.20298607	1.99115000
Ti	18.05936588	28.69003214	1.99115000
O	6.62374588	19.30006607	0.37332000
O	6.62374588	29.78711214	0.37332000
O	21.87123776	19.30006607	0.37332000
O	21.87123776	29.78711214	0.37332000
O	8.52968588	14.05653607	0.37332000
O	8.52968588	24.54358214	0.37332000
O	23.77717776	14.05653607	0.37332000
O	23.77717776	24.54358214	0.37332000
O	8.52968588	11.08838607	1.26110000
O	8.52968588	21.57543214	1.26110000
O	23.77717776	11.08838607	1.26110000
O	23.77717776	21.57543214	1.26110000
O	6.62374588	16.33190607	1.26111000
O	6.62374588	26.81895214	1.26111000
O	21.87123776	16.33190607	1.26111000
O	21.87123776	26.81895214	1.26111000
O	6.62374588	12.55516607	1.83340000
O	6.62374588	23.04221214	1.83340000
O	21.87123776	12.55516607	1.83340000
O	21.87123776	23.04221214	1.83340000
O	8.52968588	17.79868607	1.83340000
O	8.52968588	28.28573214	1.83340000
O	23.77717776	17.79868607	1.83340000
O	23.77717776	28.28573214	1.83340000
O	8.52968588	14.83053607	2.72118000
O	8.52968588	25.31758214	2.72118000
O	23.77717776	14.83053607	2.72118000
O	23.77717776	25.31758214	2.72118000
O	6.62374588	20.07405607	2.72118000
O	6.62374588	30.56110214	2.72118000
O	21.87123776	20.07405607	2.72118000
O	21.87123776	30.56110214	2.72118000
O	10.43561588	19.30006607	0.37332000
O	10.43561588	29.78711214	0.37332000
O	25.68310776	19.30006607	0.37332000
O	25.68310776	29.78711214	0.37332000
O	14.24749588	19.30006607	0.37332000
O	14.24749588	29.78711214	0.37332000
O	29.49498776	19.30006607	0.37332000
O	29.49498776	29.78711214	0.37332000
O	18.05936588	19.30006607	0.37332000
O	18.05936588	29.78711214	0.37332000
O	12.34155588	14.05653607	0.37332000
O	12.34155588	24.54358214	0.37332000
O	27.58904776	14.05653607	0.37332000
O	27.58904776	24.54358214	0.37332000
O	16.15343588	14.05653607	0.37332000
O	16.15343588	24.54358214	0.37332000
O	19.96530588	14.05653607	0.37332000
O	19.96530588	24.54358214	0.37332000
O	12.34155588	11.08838607	1.26110000
O	12.34155588	21.57543214	1.26110000
O	27.58904776	11.08838607	1.26110000
O	27.58904776	21.57543214	1.26110000
O	16.15343588	11.08838607	1.26110000
O	16.15343588	21.57543214	1.26110000
O	19.96530588	11.08838607	1.26110000
O	19.96530588	21.57543214	1.26110000
O	10.43561588	16.33190607	1.26111000
O	10.43561588	26.81895214	1.26111000
O	25.68310776	16.33190607	1.26111000
O	25.68310776	26.81895214	1.26111000
O	14.24749588	16.33190607	1.26111000
O	14.24749588	26.81895214	1.26111000
O	29.49498776	16.33190607	1.26111000
O	29.49498776	26.81895214	1.26111000
O	18.05936588	16.33190607	1.26111000
O	18.05936588	26.81895214	1.26111000
O	10.43561588	12.55516607	1.83340000
O	10.43561588	23.04221214	1.83340000
O	25.68310776	12.55516607	1.83340000
O	25.68310776	23.04221214	1.83340000
O	14.24749588	12.55516607	1.83340000
O	14.24749588	23.04221214	1.83340000
O	29.49498776	12.55516607	1.83340000
O	29.49498776	23.04221214	1.83340000
O	18.05936588	12.55516607	1.83340000
O	18.05936588	23.04221214	1.83340000
O	12.34155588	17.79868607	1.83340000
O	12.34155588	28.28573214	1.83340000
O	27.58904776	17.79868607	1.83340000
O	27.58904776	28.28573214	1.83340000
O	16.15343588	17.79868607	1.83340000
O	16.15343588	28.28573214	1.83340000
O	19.96530588	17.79868607	1.83340000
O	19.96530588	28.28573214	1.83340000
O	12.34155588	14.83053607	2.72118000
O	12.34155588	25.31758214	2.72118000
O	27.58904776	14.83053607	2.72118000
O	27.58904776	25.31758214	2.72118000
O	16.15343588	14.83053607	2.72118000
O	16.15343588	25.31758214	2.72118000
O	19.96530588	14.83053607	2.72118000
O	19.96530588	25.31758214	2.72118000
O	10.43561588	20.07405607	2.72118000
O	10.43561588	30.56110214	2.72118000
O	25.68310776	20.07405607	2.72118000
O	25.68310776	30.56110214	2.72118000
O	14.24749588	20.07405607	2.72118000
O	14.24749588	30.56110214	2.72118000
O	29.49498776	20.07405607	2.72118000
O	29.49498776	30.56110214	2.72118000
O	18.05936588	20.07405607	2.72118000
O	18.05936588	30.56110214	2.72118000
Ti	6.61049569	9.28610329	4.64680417
Ti	6.66076646	6.37053873	5.42797732
Ti	2.88970768	9.29497385	4.70148574
Ti	0.96166426	3.98777970	4.67685225
Ti	4.80494693	4.01988511	4.77487115
Ti	0.89240885	1.14297552	5.53812406
Ti	4.60859695	1.09630943	5.52624722
Ti	2.96952270	6.36807510	5.44379021
O	6.64643383	7.43812023	3.88786929
O	6.65728871	4.38868970	4.73694233
O	6.57409639	0.56659384	5.62613745
O	6.71530205	8.10704321	6.29016307
O	2.82572458	7.40596755	3.97823209
O	0.97853635	2.05316347	3.92323861
O	4.81200284	2.10756630	3.96820432
O	0.97293383	9.56696782	5.08425267
O	4.75487140	9.77486701	4.75758084
O	2.89358217	4.41697528	4.68637242
O	2.73649870	0.71370638	5.87380975
O	1.01894034	5.89651397	5.65017829
O	4.81276374	5.86009380	5.65976575
O	0.81274506	2.88776319	6.34974277
O	4.53170218	2.81819462	6.45794340
O	3.12388038	8.11930566	6.31176768
Ti	21.87755370	9.21942627	4.78848280
Ti	8.61751451	3.97582312	4.72195861
Ti	23.80959662	4.07167982	4.82669966
Ti	8.54744419	1.07985119	5.52351205
Ti	23.73384641	1.09714101	5.50334264
Ti	21.84275963	6.32300626	5.49390259
Ti	10.47681542	9.17525554	4.73132786
Ti	25.70736035	9.31709151	4.88084616
Ti	14.22117015	9.19246062	4.78527881
Ti	29.52858401	9.19250738	4.70786266
Ti	18.01906742	9.13527030	4.70037495
Ti	12.40943262	4.00347162	4.74109809
Ti	27.63703472	3.93073102	4.79015043
Ti	16.10742468	3.90803607	4.74318728
Ti	19.97873954	3.98992949	4.76481805
Ti	12.29090982	1.08362290	5.51298338
Ti	27.54943196	0.98685862	5.49575075
Ti	16.01546420	1.01698613	5.68687848
Ti	19.85674259	1.08959806	5.43665468
Ti	10.51916303	6.22541319	5.60856433
Ti	25.80495323	6.36412689	5.52760242
Ti	14.31533207	6.23302315	5.50198010
Ti	29.63936988	6.29521261	5.46524178
Ti	18.03576698	6.24265144	5.48738568
O	21.71202302	7.36179498	3.90317950
O	8.60807308	2.10746367	3.91212415
O	23.67019456	2.18454566	3.97807139
O	8.47871167	9.78288629	4.62642391
O	23.83795726	9.65247005	4.71563135
O	21.91401877	4.34929872	4.81643909
O	21.86928340	0.56342147	5.81001976
O	8.47528453	5.86243744	5.69608393
O	23.81142248	5.97179009	5.71704844
O	8.51331733	2.85853041	6.36590386
O	23.82432655	2.85820411	6.37468059
O	21.83427427	7.99798676	6.35765297
O	10.48290712	7.32444954	4.00441590
O	25.85751795	7.38211381	3.97993641
O	14.33569485	7.25682873	3.98390859
O	29.49262403	7.29267780	3.90394579
O	18.06787094	7.27071114	3.90785093
O	12.43196046	2.17238946	3.96296126
O	27.47446240	2.00604322	3.91611217
O	16.16065225	1.92552534	4.07222399
O	19.95247051	2.18088504	3.91584949
O	12.31711827	9.68518644	4.86601481
O	27.57751169	9.73590750	4.78607684
O	16.06718767	9.56748401	4.79526996
O	19.92171503	9.62350935	4.66266225
O	10.49372818	4.44302470	4.81775625
O	25.72483924	4.38429417	4.92165413
O	14.26821317	4.41606960	4.83304514
O	29.50751979	4.38088698	4.69467408
O	18.01771016	4.33026295	4.96658423
O	10.39499803	0.48845891	5.96410298
O	25.63477071	0.58407276	5.85645011
O	14.13303689	0.58256878	5.73306935
O	29.46517634	0.60794368	5.69384576
O	17.94338744	0.67571145	5.80452184
O	12.35491564	5.89817759	5.79538069
O	27.59150239	5.82281183	5.91491739
O	16.16813132	5.70166278	5.58259132
O	19.96897757	5.86517831	5.74823338
O	12.28016523	2.81168354	6.36638084
O	27.56855217	2.74397508	6.34996072
O	16.09848298	2.84178405	6.46436863
O	19.96421607	2.74764118	6.37608353
O	10.52640126	8.12160713	6.36689102
O	25.69203043	8.16099871	6.42439319
O	14.42146166	7.97512112	6.36874909
O	29.58059085	8.05488394	6.39399182
O	18.33160575	7.98985702	6.31259100
Ti	6.62461198	19.75699501	4.83872559
Ti	6.52561487	30.17594245	4.82437920
Ti	6.52291628	16.82391908	5.50617928
Ti	6.62989658	27.28596019	5.49039200
Ti	2.83209254	19.82316286	4.72911772
Ti	2.72955869	30.20196912	4.60384585
Ti	0.93488536	14.37227211	4.69248704
Ti	0.89360123	25.01880491	4.69896688
Ti	4.59750363	14.53408207	4.75823884
Ti	4.70995106	25.02511072	4.88764297
Ti	0.94376084	11.45239858	5.41182528
Ti	0.94186085	22.11900765	5.46480243
Ti	4.71194201	11.56945949	5.40528469
Ti	4.68485234	22.14622546	5.57586467
Ti	2.80545978	16.93004239	5.65531101
Ti	2.72805100	27.33975694	5.52749197
O	6.48779631	17.82477735	3.91724704
O	6.45069245	28.34954836	3.96270454
O	6.53977503	14.97440199	4.86174083
O	6.64798779	25.35720201	4.75339787
O	6.64668015	11.11086827	5.66678342
O	6.59976626	21.57560822	5.63088307
O	6.65000409	18.65371619	6.39969377
O	6.60165115	28.99447119	6.37228712
O	2.88793532	17.96867513	4.05914087
O	2.78712380	28.23640612	3.91095344
O	0.78084758	12.56363753	3.90943071
O	0.99670039	23.12538954	3.95788131
O	4.86940810	12.69107064	3.97411107
O	4.61938382	23.20462133	3.98903461
O	0.87093198	20.24924440	4.81474316
O	0.87692694	30.68045910	4.71314445
O	4.71028249	20.21811277	4.69305605
O	4.59060838	30.69248197	4.75767926
O	2.70314100	15.10261083	4.81151150
O	2.82977524	25.48979363	4.76635697
O	2.81383289	11.06262196	5.72929304
O	2.77911614	21.56669995	5.75994199
O	0.85843985	16.91689711	6.04390986
O	0.75822553	26.75765114	5.95774890
O	4.69042315	16.34291639	5.84250668
O	4.69695779	26.83727690	5.90585126
O	0.73986687	13.19071140	6.32432060
O	1.05757883	23.91726375	6.32464231
O	4.38187181	13.32911542	6.35376593
O	4.74601210	23.81672349	6.42952172
O	2.90945625	18.66957735	6.34895271
O	2.53588504	29.10197132	6.20594650
Ti	21.91829651	19.62652208	4.87134989
Ti	21.75332756	30.23164281	4.67300443
Ti	8.50321255	14.55691158	4.77909930
Ti	8.46310082	24.83906634	4.83864526
Ti	23.84784553	14.50488877	4.71542042
Ti	23.74075342	24.95831924	4.87028268
Ti	8.55466247	11.58055585	5.51282317
Ti	8.56231987	21.92827405	5.52160439
Ti	23.71670660	11.59321176	5.51874310
Ti	23.76253397	22.01080333	5.48074006
Ti	21.94156759	16.73199637	5.53812585
Ti	21.80115802	27.34079188	5.46865975
Ti	10.49358170	19.69335894	4.80473136
Ti	10.32180960	30.25900238	4.74141844
Ti	25.70872422	19.76105556	4.73902702
Ti	25.63100705	30.25050433	4.87088840
Ti	14.28129801	19.71695874	4.65858040
Ti	14.17689205	30.20900217	4.86660312
Ti	29.45612637	19.68258523	4.71144420
Ti	29.44593660	30.20120665	4.94666030
Ti	18.15310175	19.66770114	4.80839803
Ti	18.01740578	30.20601711	4.76203315
Ti	12.30459984	14.38190591	4.86565929
Ti	12.38387551	24.88022130	4.75877653
Ti	27.66273311	14.53205038	4.77654761
Ti	27.52091378	25.01346495	4.79837755
Ti	16.12442161	14.33914914	4.84935244
Ti	16.27010984	24.97811279	4.73483455
Ti	20.00850899	14.47612338	4.70430147
Ti	19.96083844	25.07504255	4.76610345
Ti	12.29468852	11.46867092	5.51818369
Ti	12.36383565	21.94161871	5.53788602
Ti	27.59704806	11.60709626	5.52827825
Ti	27.66798776	22.10402178	5.51303570
Ti	16.06246177	11.44329933	5.47077164
Ti	16.14595340	22.01335558	5.44049838
Ti	19.96350178	11.63757348	5.46548558
Ti	20.00020032	22.03440981	5.40774226
Ti	10.31453125	16.77391586	5.53106887
Ti	10.32649791	27.25586750	5.41177917
Ti	25.67576164	16.76286858	5.48767534
Ti	25.57185374	27.30035615	5.43338692
Ti	14.28870459	16.80051695	5.76797299
Ti	14.19371983	27.28198301	5.56487611
Ti	29.53136469	16.79477279	5.54321317
Ti	29.45242094	27.24784844	5.45987096
Ti	18.10230789	16.71611438	5.44791981
Ti	17.92868462	27.32590030	5.48347568
O	21.89062525	17.86426886	3.98476064
O	21.96029690	28.40513088	3.88964269
O	8.61869123	12.68538419	3.95620869
O	8.53532425	23.05191613	4.00137694
O	23.71599552	12.63061254	3.92338537
O	23.85768051	23.11749349	3.86965824
O	8.53496233	19.99333593	4.81988546
O	8.44977842	30.67742813	4.63489393
O	23.83344799	20.12140746	4.93049520
O	23.77296427	30.60988376	4.94021369
O	21.92138529	14.88936784	4.64805033
O	21.83067331	25.52691260	4.73537915
O	21.78967178	10.92941597	5.76171789
O	21.83520045	21.51770137	5.75353081
O	8.46571845	16.29843047	5.81477441
O	8.49819848	26.70588633	5.83543255
O	23.81145696	16.25658570	5.79605686
O	23.71300000	26.69579862	5.89106896
O	8.22485959	13.37765357	6.30143117
O	8.51119365	23.64762689	6.44799189
O	23.84991976	13.29961583	6.33732973
O	23.59063797	23.70267575	6.33063122
O	22.11925562	18.40075480	6.41316567
O	21.73316629	29.05872873	6.31618946
O	10.47008287	17.94029785	4.02882627
O	10.45448672	28.40378977	3.90966831
O	25.68280969	17.92999006	3.91626398
O	25.34118487	28.42898870	3.91593230
O	14.16722298	17.78076865	4.01917567
O	14.19658282	28.38177554	4.04377943
O	29.46167333	17.80091058	3.98394176
O	29.46596946	28.37817679	3.95668898
O	18.10922653	17.83524722	3.96377446
O	17.82763968	28.28384340	3.91149196
O	12.34755293	12.57270143	3.96744702
O	12.36765276	23.10638414	3.88399169
O	27.53322387	12.63771756	3.94986092
O	27.92250931	23.01098940	3.88671072
O	16.16365201	12.46072706	3.91802695
O	16.28584199	23.09824159	3.95024947
O	20.13237446	12.65904263	3.95590796
O	20.02037377	23.11795823	3.86521289
O	12.42060782	20.05188942	4.92454605
O	12.28548870	30.73184727	4.85897623
O	27.55319925	20.35440289	4.90413759
O	27.51664335	30.58602581	4.64723892
O	16.20405225	20.15499315	4.93025084
O	16.08806648	30.52735905	4.96728642
O	20.01776951	20.04091705	4.78376372
O	19.93182195	30.73728885	4.63774363
O	10.46547854	14.80537963	4.82360934
O	10.44652500	25.27822028	4.91612358
O	25.77011584	14.92325152	4.88536624
O	25.67312865	25.38858649	4.93252422
O	14.19921192	14.88981448	4.85760643
O	14.29084215	25.34680223	4.87656315
O	29.64610883	14.94857773	4.91934231
O	29.42107246	25.37582122	4.73290635
O	18.07374988	14.81477267	4.73056191
O	18.12399544	25.63867317	4.51550348
O	10.36876079	10.95702049	5.81765597
O	10.46201560	21.51035433	5.73202610
O	25.68922122	11.18462288	5.88498574
O	25.69616435	21.58492458	5.81053335
O	14.20174679	10.98995983	5.83042564
O	14.29452838	21.49306503	5.77467603
O	29.45473122	11.10938247	5.55143416
O	29.52118364	21.44192518	5.99029461
O	18.01399635	11.03559166	5.65245404
O	18.04479210	21.52186335	5.69815215
O	12.25852392	16.40173575	5.84991118
O	12.26956863	26.79643230	5.64041372
O	27.52831162	16.32597893	5.75603269
O	27.63683893	26.88457405	5.73795088
O	16.23410000	16.30238249	5.50959725
O	16.11242845	26.77375473	5.85756316
O	20.03769120	16.16299008	5.81601022
O	19.91552839	26.78722783	5.83181508
O	12.36066523	13.17029686	6.32862009
O	12.32360831	23.71361719	6.37330711
O	27.63478024	13.41408192	6.35916062
O	27.69758942	23.77732400	6.44436082
O	15.98488644	13.13995078	6.43144055
O	16.07275600	23.77193517	6.33337713
O	20.14551185	13.23009775	6.37121514
O	19.83802935	23.79917692	6.23345032
O	10.51159031	18.42700186	6.41152025
O	10.31786179	29.06842013	6.30134177
O	25.65504400	18.72945199	6.46011936
O	25.70552578	29.01591044	6.40359413
O	14.34105015	18.62749580	6.34882181
O	14.08554377	29.03310252	6.48149181
O	29.09704761	18.58316034	6.42689684
O	29.38725759	29.02473419	6.45589361
O	18.22270658	18.33803545	6.44118497
O	18.24412107	28.98280576	6.39725619
H	14.35365753	13.76115770	7.93672952
H	14.15871232	14.58414059	11.17361508
H	15.11121019	18.01666342	8.86393268
O	14.44209075	16.05927822	7.55418722
O	14.58836002	14.17779549	8.79332454
C	14.59563156	15.45123796	8.72834106
C	14.64760479	16.23416213	9.91765270
C	14.33074048	15.64199887	11.14423607
C	14.76054265	17.63665133	9.87689066
N	13.46196949	19.16190694	15.67748195
N	15.43086070	22.59936969	16.93014666
N	15.58720241	20.66214037	14.48287808
N	13.06090571	21.38377952	17.92336105
C	20.60903343	23.87194362	13.95898425
C	15.24555303	23.93137735	22.69992005
C	8.11379119	18.16450493	18.09536891
C	18.25732694	23.34373131	14.41275897
C	14.37113967	23.83110323	20.40199144
C	10.52151738	18.53630151	17.97566824
C	18.83013059	25.03492381	12.68529834
C	13.68594462	25.65579919	21.89098550
C	9.55629311	16.77025009	19.40412665
C	14.49768231	18.67911140	13.45779953
C	17.10200509	22.59005869	15.04831685
C	14.28063417	23.13320969	19.08365615
C	11.75222388	19.23758545	17.49022185
C	15.56198106	19.64604657	13.57842309
C	16.68293157	21.43992281	14.32791466
C	13.17806419	22.25593792	19.02552722
C	12.08627669	20.44962219	18.13358436
C	16.71868751	19.81100586	12.72988706
C	17.40355580	20.96906580	13.11835870
C	12.06678445	21.95875979	19.86585370
C	11.44021936	20.84284152	19.35738006
C	13.50672700	18.59530817	14.41253555
C	16.60274573	23.05600486	16.29467733
C	15.30641402	23.26912366	18.12399869
C	12.26060246	18.76720709	16.25431934
C	12.37566572	17.76625283	14.23723660
C	17.17753806	24.08211138	17.11903904
C	16.37912720	24.22855576	18.22537465
C	11.55172380	17.87317361	15.36397516
H	12.09487957	17.17354311	13.36602375
H	18.13736431	24.53170051	16.96752986
H	16.53364040	24.79416015	19.15478838
H	10.64728668	17.30705581	15.44353226
H	17.09328079	19.08739330	11.95389699
H	18.35389476	21.38190496	12.77998750
H	11.80950266	22.50666264	20.80431466
H	10.49583632	20.39960403	19.76969862
H	18.52177187	25.84042160	11.95634922
H	13.17482180	26.56812735	22.15450195
H	9.69466652	15.84657716	20.04765727
H	21.66468599	23.60829538	14.06509897
H	15.88730163	23.58959737	23.42658317
H	7.12989975	18.44995395	17.84759372
H	14.89223787	20.66513611	15.24547436
H	13.75111422	21.36786009	17.16528566
C	21.16080613	25.64589398	12.12302023
H	22.08908278	25.90164569	12.66946735
H	20.80119477	26.65630983	11.68918646
H	21.46003528	25.13388104	11.20764283
C	19.99754272	22.45530652	15.99179635
H	19.45050386	21.53101061	16.31032435
H	19.80813708	23.15788895	16.81734387
H	21.02149281	22.22559703	15.96471419
C	16.40443312	24.53033207	13.09899295
H	15.68295548	23.73334629	13.32737806
H	16.16514748	24.84970377	12.08955987
H	16.09083556	25.32572400	13.73097658
C	12.04911940	16.79525899	19.23553554
H	12.02734897	16.59610542	20.34106902
H	12.85267185	17.51826954	19.07556181
H	12.15353009	15.82580191	18.66005917
C	9.06152249	20.10768519	16.71069134
H	10.02511831	20.41042761	16.27655737
H	8.63611487	20.95636748	17.22677055
H	8.40183477	19.81559911	15.89452431
C	7.16322923	16.22830946	19.47812533
H	7.08627357	16.30243572	20.55896533
H	7.29217259	15.17297684	19.18395638
H	6.15750185	16.46000214	19.03982271
C	12.64663149	25.63165340	19.64865749
H	12.77788211	25.11430693	18.70999869
H	12.95241537	26.63513558	19.55877385
H	11.61944896	25.51866526	19.91766107
C	15.90380038	21.99183280	21.20505962
H	15.46070539	21.14303105	21.76742332
H	16.96155994	22.08645441	21.60503900
H	15.99539533	21.79014865	20.09340136
C	14.75826692	25.98575629	24.17184331
H	13.74633180	26.28081483	24.56688685
H	15.36825668	26.85713982	23.85292867
H	15.22828898	25.41908226	24.95037812
C	20.19285198	24.81637683	12.96030830
C	19.59486447	23.17582333	14.75511320
C	17.87169423	24.25052117	13.37013978
C	13.59651975	24.99222349	20.65694723
C	15.11366167	23.28211434	21.43172589
C	14.60168396	25.16035195	22.87113159
C	10.68416040	17.40924345	18.85434515
C	9.20597838	18.94836891	17.62215748
C	8.26993909	17.08226160	18.99372926
H	14.24107309	15.88789779	13.30623877
H	14.94753131	19.46725171	11.00842180
C	14.50845977	17.81994629	12.25853609
C	14.34496407	16.38624873	12.34051037
C	14.73650462	18.41422786	11.03344079

Ti O H C N 0
6-31G*
****

