%chk=f00013033.chk
%mem=24GB
%nproc=12
#p b3lyp/6-31G*

title

0 1
Ti	2.81187400	0.19704000	1.10336000
Ti	0.90594400	5.44057000	1.10336000
Ti	4.71781400	5.44057000	1.10336000
Ti	0.90594400	2.47241000	1.99114000
Ti	4.71781400	2.47241000	1.99114000
Ti	2.81187400	7.71594000	1.99115000
O	2.81187400	8.81302000	0.37332000
O	0.90594400	3.56949000	0.37332000
O	4.71781400	3.56949000	0.37332000
O	0.90594400	0.60134000	1.26110000
O	4.71781400	0.60134000	1.26110000
O	2.81187400	5.84486000	1.26111000
O	2.81187400	2.06812000	1.83340000
O	0.90594400	7.31164000	1.83340000
O	4.71781400	7.31164000	1.83340000
O	0.90594400	4.34349000	2.72118000
O	4.71781400	4.34349000	2.72118000
O	2.81187400	9.58701000	2.72118000
Ti	6.62374588	0.19704000	1.10336000
Ti	21.87123776	0.19704000	1.10336000
Ti	8.52968588	5.44057000	1.10336000
Ti	23.77717776	5.44057000	1.10336000
Ti	8.52968588	2.47241000	1.99114000
Ti	23.77717776	2.47241000	1.99114000
Ti	6.62374588	7.71594000	1.99115000
Ti	21.87123776	7.71594000	1.99115000
Ti	10.43561588	0.19704000	1.10336000
Ti	25.68310776	0.19704000	1.10336000
Ti	14.24749588	0.19704000	1.10336000
Ti	29.49498776	0.19704000	1.10336000
Ti	18.05936588	0.19704000	1.10336000
Ti	12.34155588	5.44057000	1.10336000
Ti	27.58904776	5.44057000	1.10336000
Ti	16.15343588	5.44057000	1.10336000
Ti	19.96530588	5.44057000	1.10336000
Ti	12.34155588	2.47241000	1.99114000
Ti	27.58904776	2.47241000	1.99114000
Ti	16.15343588	2.47241000	1.99114000
Ti	19.96530588	2.47241000	1.99114000
Ti	10.43561588	7.71594000	1.99115000
Ti	25.68310776	7.71594000	1.99115000
Ti	14.24749588	7.71594000	1.99115000
Ti	29.49498776	7.71594000	1.99115000
Ti	18.05936588	7.71594000	1.99115000
O	6.62374588	8.81302000	0.37332000
O	21.87123776	8.81302000	0.37332000
O	8.52968588	3.56949000	0.37332000
O	23.77717776	3.56949000	0.37332000
O	8.52968588	0.60134000	1.26110000
O	23.77717776	0.60134000	1.26110000
O	6.62374588	5.84486000	1.26111000
O	21.87123776	5.84486000	1.26111000
O	6.62374588	2.06812000	1.83340000
O	21.87123776	2.06812000	1.83340000
O	8.52968588	7.31164000	1.83340000
O	23.77717776	7.31164000	1.83340000
O	8.52968588	4.34349000	2.72118000
O	23.77717776	4.34349000	2.72118000
O	6.62374588	9.58701000	2.72118000
O	21.87123776	9.58701000	2.72118000
O	10.43561588	8.81302000	0.37332000
O	25.68310776	8.81302000	0.37332000
O	14.24749588	8.81302000	0.37332000
O	29.49498776	8.81302000	0.37332000
O	18.05936588	8.81302000	0.37332000
O	12.34155588	3.56949000	0.37332000
O	27.58904776	3.56949000	0.37332000
O	16.15343588	3.56949000	0.37332000
O	19.96530588	3.56949000	0.37332000
O	12.34155588	0.60134000	1.26110000
O	27.58904776	0.60134000	1.26110000
O	16.15343588	0.60134000	1.26110000
O	19.96530588	0.60134000	1.26110000
O	10.43561588	5.84486000	1.26111000
O	25.68310776	5.84486000	1.26111000
O	14.24749588	5.84486000	1.26111000
O	29.49498776	5.84486000	1.26111000
O	18.05936588	5.84486000	1.26111000
O	10.43561588	2.06812000	1.83340000
O	25.68310776	2.06812000	1.83340000
O	14.24749588	2.06812000	1.83340000
O	29.49498776	2.06812000	1.83340000
O	18.05936588	2.06812000	1.83340000
O	12.34155588	7.31164000	1.83340000
O	27.58904776	7.31164000	1.83340000
O	16.15343588	7.31164000	1.83340000
O	19.96530588	7.31164000	1.83340000
O	12.34155588	4.34349000	2.72118000
O	27.58904776	4.34349000	2.72118000
O	16.15343588	4.34349000	2.72118000
O	19.96530588	4.34349000	2.72118000
O	10.43561588	9.58701000	2.72118000
O	25.68310776	9.58701000	2.72118000
O	14.24749588	9.58701000	2.72118000
O	29.49498776	9.58701000	2.72118000
O	18.05936588	9.58701000	2.72118000
Ti	2.81187400	10.68408607	1.10336000
Ti	2.81187400	21.17113214	1.10336000
Ti	0.90594400	15.92761607	1.10336000
Ti	0.90594400	26.41466214	1.10336000
Ti	4.71781400	15.92761607	1.10336000
Ti	4.71781400	26.41466214	1.10336000
Ti	0.90594400	12.95945607	1.99114000
Ti	0.90594400	23.44650214	1.99114000
Ti	4.71781400	12.95945607	1.99114000
Ti	4.71781400	23.44650214	1.99114000
Ti	2.81187400	18.20298607	1.99115000
Ti	2.81187400	28.69003214	1.99115000
O	2.81187400	19.30006607	0.37332000
O	2.81187400	29.78711214	0.37332000
O	0.90594400	14.05653607	0.37332000
O	0.90594400	24.54358214	0.37332000
O	4.71781400	14.05653607	0.37332000
O	4.71781400	24.54358214	0.37332000
O	0.90594400	11.08838607	1.26110000
O	0.90594400	21.57543214	1.26110000
O	4.71781400	11.08838607	1.26110000
O	4.71781400	21.57543214	1.26110000
O	2.81187400	16.33190607	1.26111000
O	2.81187400	26.81895214	1.26111000
O	2.81187400	12.55516607	1.83340000
O	2.81187400	23.04221214	1.83340000
O	0.90594400	17.79868607	1.83340000
O	0.90594400	28.28573214	1.83340000
O	4.71781400	17.79868607	1.83340000
O	4.71781400	28.28573214	1.83340000
O	0.90594400	14.83053607	2.72118000
O	0.90594400	25.31758214	2.72118000
O	4.71781400	14.83053607	2.72118000
O	4.71781400	25.31758214	2.72118000
O	2.81187400	20.07405607	2.72118000
O	2.81187400	30.56110214	2.72118000
Ti	6.62374588	10.68408607	1.10336000
Ti	6.62374588	21.17113214	1.10336000
Ti	21.87123776	10.68408607	1.10336000
Ti	21.87123776	21.17113214	1.10336000
Ti	8.52968588	15.92761607	1.10336000
Ti	8.52968588	26.41466214	1.10336000
Ti	23.77717776	15.92761607	1.10336000
Ti	23.77717776	26.41466214	1.10336000
Ti	8.52968588	12.95945607	1.99114000
Ti	8.52968588	23.44650214	1.99114000
Ti	23.77717776	12.95945607	1.99114000
Ti	23.77717776	23.44650214	1.99114000
Ti	6.62374588	18.20298607	1.99115000
Ti	6.62374588	28.69003214	1.99115000
Ti	21.87123776	18.20298607	1.99115000
Ti	21.87123776	28.69003214	1.99115000
Ti	10.43561588	10.68408607	1.10336000
Ti	10.43561588	21.17113214	1.10336000
Ti	25.68310776	10.68408607	1.10336000
Ti	25.68310776	21.17113214	1.10336000
Ti	14.24749588	10.68408607	1.10336000
Ti	14.24749588	21.17113214	1.10336000
Ti	29.49498776	10.68408607	1.10336000
Ti	29.49498776	21.17113214	1.10336000
Ti	18.05936588	10.68408607	1.10336000
Ti	18.05936588	21.17113214	1.10336000
Ti	12.34155588	15.92761607	1.10336000
Ti	12.34155588	26.41466214	1.10336000
Ti	27.58904776	15.92761607	1.10336000
Ti	27.58904776	26.41466214	1.10336000
Ti	16.15343588	15.92761607	1.10336000
Ti	16.15343588	26.41466214	1.10336000
Ti	19.96530588	15.92761607	1.10336000
Ti	19.96530588	26.41466214	1.10336000
Ti	12.34155588	12.95945607	1.99114000
Ti	12.34155588	23.44650214	1.99114000
Ti	27.58904776	12.95945607	1.99114000
Ti	27.58904776	23.44650214	1.99114000
Ti	16.15343588	12.95945607	1.99114000
Ti	16.15343588	23.44650214	1.99114000
Ti	19.96530588	12.95945607	1.99114000
Ti	19.96530588	23.44650214	1.99114000
Ti	10.43561588	18.20298607	1.99115000
Ti	10.43561588	28.69003214	1.99115000
Ti	25.68310776	18.20298607	1.99115000
Ti	25.68310776	28.69003214	1.99115000
Ti	14.24749588	18.20298607	1.99115000
Ti	14.24749588	28.69003214	1.99115000
Ti	29.49498776	18.20298607	1.99115000
Ti	29.49498776	28.69003214	1.99115000
Ti	18.05936588	18.20298607	1.99115000
Ti	18.05936588	28.69003214	1.99115000
O	6.62374588	19.30006607	0.37332000
O	6.62374588	29.78711214	0.37332000
O	21.87123776	19.30006607	0.37332000
O	21.87123776	29.78711214	0.37332000
O	8.52968588	14.05653607	0.37332000
O	8.52968588	24.54358214	0.37332000
O	23.77717776	14.05653607	0.37332000
O	23.77717776	24.54358214	0.37332000
O	8.52968588	11.08838607	1.26110000
O	8.52968588	21.57543214	1.26110000
O	23.77717776	11.08838607	1.26110000
O	23.77717776	21.57543214	1.26110000
O	6.62374588	16.33190607	1.26111000
O	6.62374588	26.81895214	1.26111000
O	21.87123776	16.33190607	1.26111000
O	21.87123776	26.81895214	1.26111000
O	6.62374588	12.55516607	1.83340000
O	6.62374588	23.04221214	1.83340000
O	21.87123776	12.55516607	1.83340000
O	21.87123776	23.04221214	1.83340000
O	8.52968588	17.79868607	1.83340000
O	8.52968588	28.28573214	1.83340000
O	23.77717776	17.79868607	1.83340000
O	23.77717776	28.28573214	1.83340000
O	8.52968588	14.83053607	2.72118000
O	8.52968588	25.31758214	2.72118000
O	23.77717776	14.83053607	2.72118000
O	23.77717776	25.31758214	2.72118000
O	6.62374588	20.07405607	2.72118000
O	6.62374588	30.56110214	2.72118000
O	21.87123776	20.07405607	2.72118000
O	21.87123776	30.56110214	2.72118000
O	10.43561588	19.30006607	0.37332000
O	10.43561588	29.78711214	0.37332000
O	25.68310776	19.30006607	0.37332000
O	25.68310776	29.78711214	0.37332000
O	14.24749588	19.30006607	0.37332000
O	14.24749588	29.78711214	0.37332000
O	29.49498776	19.30006607	0.37332000
O	29.49498776	29.78711214	0.37332000
O	18.05936588	19.30006607	0.37332000
O	18.05936588	29.78711214	0.37332000
O	12.34155588	14.05653607	0.37332000
O	12.34155588	24.54358214	0.37332000
O	27.58904776	14.05653607	0.37332000
O	27.58904776	24.54358214	0.37332000
O	16.15343588	14.05653607	0.37332000
O	16.15343588	24.54358214	0.37332000
O	19.96530588	14.05653607	0.37332000
O	19.96530588	24.54358214	0.37332000
O	12.34155588	11.08838607	1.26110000
O	12.34155588	21.57543214	1.26110000
O	27.58904776	11.08838607	1.26110000
O	27.58904776	21.57543214	1.26110000
O	16.15343588	11.08838607	1.26110000
O	16.15343588	21.57543214	1.26110000
O	19.96530588	11.08838607	1.26110000
O	19.96530588	21.57543214	1.26110000
O	10.43561588	16.33190607	1.26111000
O	10.43561588	26.81895214	1.26111000
O	25.68310776	16.33190607	1.26111000
O	25.68310776	26.81895214	1.26111000
O	14.24749588	16.33190607	1.26111000
O	14.24749588	26.81895214	1.26111000
O	29.49498776	16.33190607	1.26111000
O	29.49498776	26.81895214	1.26111000
O	18.05936588	16.33190607	1.26111000
O	18.05936588	26.81895214	1.26111000
O	10.43561588	12.55516607	1.83340000
O	10.43561588	23.04221214	1.83340000
O	25.68310776	12.55516607	1.83340000
O	25.68310776	23.04221214	1.83340000
O	14.24749588	12.55516607	1.83340000
O	14.24749588	23.04221214	1.83340000
O	29.49498776	12.55516607	1.83340000
O	29.49498776	23.04221214	1.83340000
O	18.05936588	12.55516607	1.83340000
O	18.05936588	23.04221214	1.83340000
O	12.34155588	17.79868607	1.83340000
O	12.34155588	28.28573214	1.83340000
O	27.58904776	17.79868607	1.83340000
O	27.58904776	28.28573214	1.83340000
O	16.15343588	17.79868607	1.83340000
O	16.15343588	28.28573214	1.83340000
O	19.96530588	17.79868607	1.83340000
O	19.96530588	28.28573214	1.83340000
O	12.34155588	14.83053607	2.72118000
O	12.34155588	25.31758214	2.72118000
O	27.58904776	14.83053607	2.72118000
O	27.58904776	25.31758214	2.72118000
O	16.15343588	14.83053607	2.72118000
O	16.15343588	25.31758214	2.72118000
O	19.96530588	14.83053607	2.72118000
O	19.96530588	25.31758214	2.72118000
O	10.43561588	20.07405607	2.72118000
O	10.43561588	30.56110214	2.72118000
O	25.68310776	20.07405607	2.72118000
O	25.68310776	30.56110214	2.72118000
O	14.24749588	20.07405607	2.72118000
O	14.24749588	30.56110214	2.72118000
O	29.49498776	20.07405607	2.72118000
O	29.49498776	30.56110214	2.72118000
O	18.05936588	20.07405607	2.72118000
O	18.05936588	30.56110214	2.72118000
Ti	6.55534329	9.32322920	4.65329227
Ti	6.59620939	6.33544746	5.42261050
Ti	2.74058274	9.17532374	4.81190670
Ti	0.80503538	3.83877725	4.87389712
Ti	4.64792436	3.96244881	4.80935951
Ti	0.82786481	0.92870486	5.47451255
Ti	4.69393385	1.14457001	5.56579820
Ti	2.62490605	6.14963149	5.46420885
O	6.93226487	7.35400524	3.83537685
O	6.59211228	4.52198542	4.65581593
O	6.61565590	0.63981507	5.88404176
O	6.73892722	8.16082023	6.23637012
O	2.70828650	7.30175598	3.81599595
O	0.79205943	2.07728127	3.90978998
O	4.79764843	2.09043390	3.93604675
O	0.88871632	9.65026342	4.70136930
O	4.62072369	9.68152060	4.92097750
O	2.68084892	4.26014582	4.72383905
O	2.82374291	0.61632612	5.72752043
O	0.86430276	5.63097298	5.95059933
O	4.68915812	5.86716750	5.51065035
O	0.96756394	2.66355721	6.48457003
O	4.76983186	2.90765113	6.38735284
O	2.60055876	7.90863526	6.24820921
Ti	21.83804064	9.25826709	4.68488409
Ti	8.45554247	4.00799831	4.80705301
Ti	23.79923461	4.01065544	4.93816890
Ti	8.49636773	1.07846229	5.54209823
Ti	23.76412674	1.07022119	5.44336756
Ti	21.86643337	6.34518140	5.58320056
Ti	10.37536743	9.23143419	4.70339320
Ti	25.66819800	9.29158573	4.75036465
Ti	14.22650018	9.30050042	4.81593466
Ti	29.49109999	9.27168075	4.80316748
Ti	18.11437435	9.30746569	4.78287636
Ti	12.25697077	3.93912000	4.82845177
Ti	27.50930899	4.06157607	4.75417027
Ti	16.11494834	4.03640587	4.72686066
Ti	19.86408978	4.00306519	4.78313180
Ti	12.38280922	1.02850574	5.55887938
Ti	27.56195086	1.07517980	5.49545636
Ti	16.07950064	1.15009408	5.48475545
Ti	19.99152269	1.11390062	5.52411552
Ti	10.34428162	6.36788347	5.47064115
Ti	25.72658856	6.36599228	5.46566562
Ti	14.06882887	6.39113641	5.48940814
Ti	29.51587876	6.29037632	5.47094865
Ti	17.99991269	6.40614268	5.61416418
O	21.92753273	7.34604521	3.93067604
O	8.55167919	2.16186321	3.98006215
O	23.98011674	2.07842221	3.94767455
O	8.52011542	9.74290305	4.75953005
O	23.77460729	9.69586992	4.77682050
O	21.82770265	4.39779812	4.79281455
O	21.90759127	0.60924106	5.70402857
O	8.47809146	5.74787039	5.94747770
O	23.78760757	5.89684674	5.86865549
O	8.67539654	2.71198990	6.51017772
O	23.58882503	2.79174135	6.45149008
O	21.79107192	8.08300720	6.37170255
O	10.43562991	7.31299571	3.97025910
O	25.63847082	7.43693491	3.92395618
O	14.32424063	7.33361305	3.85672010
O	29.68066298	7.44850343	4.02394260
O	18.36983917	7.37925731	3.99682291
O	12.26776370	2.05278260	3.94697520
O	27.70843859	2.15724931	3.97983940
O	15.93633778	2.21750452	3.90832958
O	19.77877544	2.16231415	3.99581745
O	12.25828080	9.62460336	4.84779734
O	27.56021986	9.67741337	4.81211923
O	16.18010791	9.65003940	4.61975531
O	19.93026753	9.77850786	4.63573559
O	10.36361135	4.44628652	4.77550456
O	25.66935101	4.38535383	4.86175245
O	14.13734492	4.51710976	4.74565493
O	29.49367020	4.41194143	4.75334514
O	17.99870207	4.46571598	5.02728482
O	10.45994801	0.63397155	5.67589449
O	25.56580143	0.53379722	5.89989062
O	14.27739343	0.59895440	5.94255635
O	29.46018728	0.49177258	5.95704919
O	17.98677046	0.57261451	5.84630180
O	12.23041504	5.75910423	5.88697514
O	27.57462745	5.95343305	5.59417614
O	16.00785878	5.99364190	5.62911851
O	19.86613267	5.85182669	5.78661538
O	12.36009256	2.87594136	6.47352630
O	27.39671101	2.88798869	6.31551055
O	16.10385402	2.85110065	6.36212327
O	19.98546457	2.89130826	6.32674468
O	10.33693645	8.24167077	6.41388771
O	25.50581559	8.12445663	6.42306862
O	14.21784784	8.07953503	6.31814860
O	29.23493729	8.15406395	6.33910384
O	17.92511488	8.20100374	6.45875423
Ti	6.62710891	19.70074214	4.88712160
Ti	6.72130640	30.23472835	4.76021109
Ti	6.62072353	16.70963319	5.45327775
Ti	6.55887504	27.36268066	5.54935273
Ti	2.81453203	19.59432800	4.73425207
Ti	2.74582386	30.13304588	4.94753825
Ti	0.91464109	14.46709829	4.73807650
Ti	0.84560031	24.91631324	4.80929653
Ti	4.68082751	14.46588583	4.77885039
Ti	4.75359567	24.95367342	4.82318249
Ti	0.82740533	11.52850366	5.58188815
Ti	0.88686899	21.95141386	5.45286132
Ti	4.72103095	11.54735550	5.54579001
Ti	4.72516823	21.97587882	5.48721489
Ti	2.77866290	16.68340037	5.46071751
Ti	2.77105441	27.23195071	5.54861583
O	6.59983664	17.84573328	3.96156965
O	6.50300134	28.28998788	3.95333198
O	6.65970053	14.79991001	4.78961450
O	6.66636270	25.51224623	4.73322899
O	6.63271422	11.17119895	5.72264123
O	6.57364055	21.62858718	5.63445346
O	6.46968492	18.56733035	6.44976656
O	6.60464064	29.07725228	6.42714399
O	2.74853241	17.79715300	3.93967927
O	2.90387468	28.31776519	3.98434526
O	0.86756101	12.53220885	3.96232049
O	0.84251134	23.09131141	3.94006754
O	4.65332274	12.60648925	3.98853803
O	4.58010269	23.08667221	3.95968747
O	0.98281353	20.12051730	4.67363972
O	0.88198316	30.52747787	4.82244402
O	4.64110852	20.05759062	4.93178543
O	4.68257177	30.62114267	4.96532082
O	2.78103219	14.85157217	4.82145700
O	2.81531311	25.25182482	4.94823416
O	2.77316620	11.06099137	5.65517603
O	2.79853077	21.46823980	5.85716686
O	0.94655136	16.28788026	5.75585032
O	0.98405374	26.66533281	5.76239211
O	4.74195412	16.23179873	5.75923442
O	4.75303850	26.69936513	5.94814780
O	0.69230166	13.38125698	6.28530129
O	0.90096246	23.61903005	6.39164251
O	4.89923511	13.29060088	6.37590024
O	4.87932298	23.78857934	6.36732553
O	2.83942690	18.41609396	6.47522098
O	2.69850705	29.00115233	6.50447555
Ti	21.96344949	19.74719968	4.75709770
Ti	21.92677924	30.18739422	4.79892051
Ti	8.56916834	14.52348227	4.73890569
Ti	8.56007860	24.93927283	4.78458793
Ti	23.91907427	14.49769291	4.72103359
Ti	23.74671331	24.93581523	4.67848478
Ti	8.44934795	11.66412034	5.67762405
Ti	8.50867588	22.06441903	5.50909170
Ti	23.76779797	11.58873520	5.50863200
Ti	24.00417415	22.10257431	5.47659523
Ti	21.98902825	16.78869521	5.37432516
Ti	21.98047444	27.34528914	5.47553491
Ti	10.41931703	19.70606658	4.83883734
Ti	10.55661477	30.27794336	4.75570527
Ti	25.70801962	19.70323097	4.69532333
Ti	25.75315012	30.08552579	4.79202741
Ti	14.21325142	19.70781055	4.72326638
Ti	14.37141353	30.17517388	4.67494651
Ti	29.63438060	19.57527662	4.70459252
Ti	29.47958475	30.16495116	4.80481616
Ti	18.14551389	19.68775399	4.76898896
Ti	18.02417102	30.29599014	4.87948773
Ti	12.40462649	14.40081590	4.69344059
Ti	12.33441835	25.01081829	4.78482928
Ti	27.61484840	14.52859173	4.76109696
Ti	27.56408307	24.90286421	4.86563912
Ti	16.17572102	14.45096615	4.68139348
Ti	16.24467696	25.07124037	4.87009540
Ti	20.10339793	14.47712170	4.93400492
Ti	19.95609149	25.03988390	4.78377115
Ti	12.29366618	11.51854065	5.47050792
Ti	12.32871653	22.11792726	5.50803709
Ti	27.47812646	11.60394619	5.44568341
Ti	27.69913508	21.99289833	5.52785574
Ti	16.14033336	11.53539606	5.50094386
Ti	16.17372920	22.06905216	5.45519170
Ti	20.12718933	11.60284462	5.45766442
Ti	20.02886516	22.09531550	5.49861219
Ti	10.37857710	16.71058786	5.52398540
Ti	10.39620540	27.42197462	5.65413142
Ti	25.70814113	16.81754025	5.49168343
Ti	25.54528141	27.21454496	5.61253260
Ti	14.26514518	16.62387998	5.79625716
Ti	14.27208135	27.26571408	5.49378627
Ti	29.56082611	16.69276220	5.59275083
Ti	29.55301289	27.18970174	5.54625735
Ti	18.13780667	16.79472740	5.41648140
Ti	18.11470533	27.36179054	5.46135590
O	21.98343280	17.73282494	3.80628514
O	21.99345555	28.37683880	3.92820836
O	8.46932578	12.67033594	4.00592394
O	8.45743062	23.05847731	3.97980749
O	23.69051636	12.56230221	3.94411633
O	24.04280356	23.11610465	3.87604673
O	8.46374522	20.10207806	4.86415341
O	8.53557551	30.67901470	4.77537093
O	23.87556369	20.24374709	4.71351382
O	23.80088304	30.55554197	4.77461773
O	21.95546362	14.78400663	4.92660731
O	21.90378758	25.46753660	4.86230090
O	21.89062210	11.03254103	5.78419852
O	21.94970055	21.64947855	5.64970506
O	8.49459291	16.23831575	5.76425059
O	8.47708761	26.79144529	5.80347232
O	23.78874772	16.40719469	5.78747247
O	23.69449200	26.71586849	5.95825561
O	8.59581307	13.38017826	6.51252147
O	8.54844884	23.82698669	6.30518118
O	23.96319536	13.36266851	6.39646728
O	23.91353390	23.83808492	6.44365677
O	22.02219575	18.54276667	6.21831961
O	22.04150439	29.08870172	6.46129336
O	10.50775530	17.87897545	3.95404055
O	10.53179766	28.23512541	3.96460343
O	25.69072774	17.89832037	3.95625561
O	25.78136697	28.33920020	3.98453397
O	14.26118179	17.77649216	3.92442019
O	14.31429898	28.35827184	3.97671768
O	29.50314602	17.78445463	3.86166359
O	29.44020183	28.38323328	4.00413799
O	18.08010829	17.85485965	3.93474997
O	18.02103175	28.39247022	3.90016215
O	12.48112835	12.61224742	3.93746046
O	12.28031126	23.04306551	3.87504699
O	27.67516939	12.65617979	3.93133365
O	27.69519298	23.11364759	3.94217164
O	16.19688059	12.59201791	3.90988537
O	16.10421910	23.16271349	3.90471780
O	19.96773614	12.63651637	3.96378709
O	19.98414099	23.19298176	3.92694773
O	12.33290920	20.16342504	4.70908715
O	12.46695967	30.62845276	4.83553581
O	27.63881996	20.04060773	4.77864285
O	27.55786306	30.70054761	4.82011499
O	16.16139378	20.18198790	4.66031068
O	16.19098496	30.92036165	4.56997913
O	20.02824978	20.19148981	4.89696423
O	19.97783372	30.59073132	5.00575647
O	10.48639411	14.91379642	4.72335336
O	10.39045092	25.58601276	4.82722629
O	25.75098079	14.87856933	4.60154691
O	25.68163071	25.37699827	4.83550971
O	14.28086920	14.70454133	4.93760070
O	14.25220199	25.34332665	4.83842215
O	29.56425605	14.87631811	4.72535138
O	29.45028212	25.27104661	4.86540024
O	18.09486048	14.88852330	4.79138073
O	18.07625561	25.53568608	4.76341525
O	10.40271202	11.11013156	5.70620807
O	10.43170195	21.57008433	5.69921567
O	25.57207041	11.05902929	5.66330053
O	25.77997031	21.56628863	5.84453670
O	14.20380705	11.09462843	5.53087608
O	14.25917238	21.49938124	5.70944797
O	29.40412582	11.13121007	5.65801757
O	29.54674969	21.33391969	5.87679730
O	18.14008103	11.03834639	5.73674567
O	18.05046937	21.54258972	5.76458636
O	12.32336803	16.29624228	5.74101257
O	12.31163700	26.84810979	5.86002093
O	27.63772152	16.37131839	5.73745319
O	27.56564356	26.78334510	5.90086735
O	16.20884678	16.31997270	5.65233604
O	16.16466857	26.88380631	5.84841572
O	20.07603196	16.35429136	5.64082683
O	20.02789257	26.90398819	5.73304468
O	12.18146439	13.35096213	6.25400533
O	12.38375781	23.83195586	6.43157569
O	27.18187721	13.36893357	6.35371463
O	27.52623368	23.69867385	6.26890259
O	16.25639582	13.22735639	6.37774574
O	16.19744656	23.84979255	6.28909516
O	20.27821784	13.34639095	6.56027880
O	19.95396362	23.81573020	6.35532996
O	10.29494863	18.58439656	6.38621302
O	10.63521185	29.14399418	6.38423941
O	25.65742248	18.50984995	6.36987644
O	25.63865713	28.95771371	6.34860158
O	14.12031988	18.61936250	6.29025409
O	14.23155101	29.07628999	6.29604513
O	29.59026139	18.40251827	6.41229750
O	29.83067589	28.90983435	6.41875608
O	17.95790463	18.55355598	6.34234644
O	17.89584420	29.04252484	6.37386439
H	15.27618835	14.21931260	7.63339445
H	15.65850151	14.84114832	11.29204339
H	14.60250158	18.26336779	8.86311256
O	14.38757374	16.30704547	7.75978673
O	15.51042607	14.52997425	8.55435168
C	15.06830505	15.76763130	8.74699196
C	15.19713554	16.55888757	9.98998932
C	15.54894958	15.96778622	11.19470016
C	14.88669092	17.91497721	9.89040290
N	13.51874359	19.32824134	15.34863142
N	15.24690282	22.57177348	17.10224069
N	16.01001617	20.93217860	14.80298265
N	12.83796106	21.00574687	17.67147699
C	20.77459442	24.38038733	15.33635868
C	13.52621431	24.25864651	22.46100756
C	8.54607679	16.92089633	16.45988678
C	18.44329597	23.79345201	15.28328569
C	13.26135920	23.81260765	20.11272040
C	10.63134803	17.90775967	17.24425029
C	19.22637794	25.84162193	14.18410697
C	11.92662980	25.58541536	21.23748656
C	9.78206229	15.87555576	18.30905745
C	15.17983746	18.95579814	13.50362377
C	17.30464286	22.89722147	15.66562175
C	13.53174424	23.03316224	18.83038872
C	11.69239509	18.89411214	16.94263670
C	16.08175865	20.01528225	13.77727854
C	17.08791420	21.75535628	14.78877028
C	12.80224961	21.84733544	18.72907344
C	11.91171834	19.98511404	17.81192981
C	17.26068527	20.37443102	12.98773168
C	17.85375841	21.45457534	13.58422479
C	11.71495844	21.42222513	19.59611090
C	11.16735890	20.20846364	18.99511576
C	14.06195720	18.65957936	14.28699382
C	16.40383396	23.23160732	16.72179160
C	14.66826787	23.36802354	18.12946186
C	12.39106204	18.64034251	15.75529464
C	13.15645683	17.62272600	13.86018130
C	16.55982000	24.40812534	17.50783111
C	15.44170151	24.53933422	18.33553460
C	12.16493803	17.58762155	14.80765245
H	13.28689565	17.02042833	12.95132443
H	17.41614569	25.11016045	17.47736170
H	15.43607095	25.36730061	19.10243503
H	11.20198584	17.06809939	14.66571003
H	17.67751674	19.92700049	12.10551766
H	18.77124797	21.94606656	13.25104069
H	11.48822154	21.87914753	20.56571490
H	10.29583704	19.65094747	19.30816329
H	19.06668209	26.81322056	13.66863025
H	11.14393558	26.37309685	21.24071063
H	9.87752351	15.17288620	19.11188099
H	21.78030847	24.08963578	15.68689308
H	13.99504991	24.04462361	23.47805521
H	7.65521092	16.94070987	15.76107343
H	15.23898860	20.96305815	15.47357685
H	13.51038313	21.03644185	16.89854528
C	21.53520807	26.67883487	14.53953078
H	22.21134191	26.56330979	13.73245518
H	22.15521169	26.71230602	15.45222380
H	21.01142336	27.67244447	14.45280558
C	20.13829192	22.23567947	16.41713880
H	20.00564666	21.30912546	15.78754424
H	19.44615375	22.15675231	17.28440519
H	21.14262571	22.34198386	16.83202540
C	16.75699835	25.22645790	14.01756452
H	16.80071131	24.99096627	12.95024486
H	16.50799406	26.23559520	14.23482190
H	16.18010553	24.46863320	14.59722284
C	11.97508045	16.88283820	19.11175766
H	11.78073333	17.61135037	19.92326067
H	12.84425429	17.31690965	18.59000789
H	12.18054107	15.90287391	19.58429653
C	9.29892238	19.04881258	15.42391895
H	8.25953108	18.99403958	15.11206497
H	9.94486085	18.89538368	14.59893724
H	9.52504576	19.96633809	15.94077906
C	7.65465747	14.75604285	17.42677099
H	6.70875504	14.97333063	16.94356701
H	7.48671017	14.36912014	18.40190458
H	7.96865012	13.94474760	16.76105192
C	11.52730602	25.09845734	18.87200722
H	11.16199150	26.10026537	18.73810930
H	10.60140218	24.57518607	18.75266842
H	12.12336528	24.76868595	17.99869432
C	14.86976714	22.37585069	21.58725289
H	14.64303329	21.77636823	22.48634904
H	15.92310829	22.73745112	21.58710360
H	14.92328676	21.68240979	20.72249167
C	12.35737773	26.13086689	23.62559919
H	11.94322431	25.48705207	24.43622409
H	11.56567976	26.89017565	23.45353044
H	13.29829854	26.61192693	24.00653153
C	20.52662627	25.60031989	14.66479591
C	19.78463356	23.44450010	15.61393887
C	18.18077400	24.93607167	14.46308142
C	12.26843355	24.80121206	20.09197167
C	13.92457338	23.50655312	21.34481942
C	12.62026670	25.30774523	22.41420668
C	10.80983584	16.84782530	18.16361377
C	9.51029711	17.93827060	16.39490557
C	8.67452341	15.87085886	17.42335639
H	15.84746662	16.20365780	13.28113548
H	14.64367564	19.68788602	11.14974154
C	15.28888778	18.10963011	12.30123829
C	15.59556086	16.72548446	12.35633872
C	14.98156491	18.67481773	11.08050977

Ti O H C N 0
6-31G*
****

