%chk=f00019899.chk
%mem=24GB
%nproc=12
#p b3lyp/6-31G*

title

0 1
Ti	2.81187400	0.19704000	1.10336000
Ti	0.90594400	5.44057000	1.10336000
Ti	4.71781400	5.44057000	1.10336000
Ti	0.90594400	2.47241000	1.99114000
Ti	4.71781400	2.47241000	1.99114000
Ti	2.81187400	7.71594000	1.99115000
O	2.81187400	8.81302000	0.37332000
O	0.90594400	3.56949000	0.37332000
O	4.71781400	3.56949000	0.37332000
O	0.90594400	0.60134000	1.26110000
O	4.71781400	0.60134000	1.26110000
O	2.81187400	5.84486000	1.26111000
O	2.81187400	2.06812000	1.83340000
O	0.90594400	7.31164000	1.83340000
O	4.71781400	7.31164000	1.83340000
O	0.90594400	4.34349000	2.72118000
O	4.71781400	4.34349000	2.72118000
O	2.81187400	9.58701000	2.72118000
Ti	6.62374588	0.19704000	1.10336000
Ti	21.87123776	0.19704000	1.10336000
Ti	8.52968588	5.44057000	1.10336000
Ti	23.77717776	5.44057000	1.10336000
Ti	8.52968588	2.47241000	1.99114000
Ti	23.77717776	2.47241000	1.99114000
Ti	6.62374588	7.71594000	1.99115000
Ti	21.87123776	7.71594000	1.99115000
Ti	10.43561588	0.19704000	1.10336000
Ti	25.68310776	0.19704000	1.10336000
Ti	14.24749588	0.19704000	1.10336000
Ti	29.49498776	0.19704000	1.10336000
Ti	18.05936588	0.19704000	1.10336000
Ti	12.34155588	5.44057000	1.10336000
Ti	27.58904776	5.44057000	1.10336000
Ti	16.15343588	5.44057000	1.10336000
Ti	19.96530588	5.44057000	1.10336000
Ti	12.34155588	2.47241000	1.99114000
Ti	27.58904776	2.47241000	1.99114000
Ti	16.15343588	2.47241000	1.99114000
Ti	19.96530588	2.47241000	1.99114000
Ti	10.43561588	7.71594000	1.99115000
Ti	25.68310776	7.71594000	1.99115000
Ti	14.24749588	7.71594000	1.99115000
Ti	29.49498776	7.71594000	1.99115000
Ti	18.05936588	7.71594000	1.99115000
O	6.62374588	8.81302000	0.37332000
O	21.87123776	8.81302000	0.37332000
O	8.52968588	3.56949000	0.37332000
O	23.77717776	3.56949000	0.37332000
O	8.52968588	0.60134000	1.26110000
O	23.77717776	0.60134000	1.26110000
O	6.62374588	5.84486000	1.26111000
O	21.87123776	5.84486000	1.26111000
O	6.62374588	2.06812000	1.83340000
O	21.87123776	2.06812000	1.83340000
O	8.52968588	7.31164000	1.83340000
O	23.77717776	7.31164000	1.83340000
O	8.52968588	4.34349000	2.72118000
O	23.77717776	4.34349000	2.72118000
O	6.62374588	9.58701000	2.72118000
O	21.87123776	9.58701000	2.72118000
O	10.43561588	8.81302000	0.37332000
O	25.68310776	8.81302000	0.37332000
O	14.24749588	8.81302000	0.37332000
O	29.49498776	8.81302000	0.37332000
O	18.05936588	8.81302000	0.37332000
O	12.34155588	3.56949000	0.37332000
O	27.58904776	3.56949000	0.37332000
O	16.15343588	3.56949000	0.37332000
O	19.96530588	3.56949000	0.37332000
O	12.34155588	0.60134000	1.26110000
O	27.58904776	0.60134000	1.26110000
O	16.15343588	0.60134000	1.26110000
O	19.96530588	0.60134000	1.26110000
O	10.43561588	5.84486000	1.26111000
O	25.68310776	5.84486000	1.26111000
O	14.24749588	5.84486000	1.26111000
O	29.49498776	5.84486000	1.26111000
O	18.05936588	5.84486000	1.26111000
O	10.43561588	2.06812000	1.83340000
O	25.68310776	2.06812000	1.83340000
O	14.24749588	2.06812000	1.83340000
O	29.49498776	2.06812000	1.83340000
O	18.05936588	2.06812000	1.83340000
O	12.34155588	7.31164000	1.83340000
O	27.58904776	7.31164000	1.83340000
O	16.15343588	7.31164000	1.83340000
O	19.96530588	7.31164000	1.83340000
O	12.34155588	4.34349000	2.72118000
O	27.58904776	4.34349000	2.72118000
O	16.15343588	4.34349000	2.72118000
O	19.96530588	4.34349000	2.72118000
O	10.43561588	9.58701000	2.72118000
O	25.68310776	9.58701000	2.72118000
O	14.24749588	9.58701000	2.72118000
O	29.49498776	9.58701000	2.72118000
O	18.05936588	9.58701000	2.72118000
Ti	2.81187400	10.68408607	1.10336000
Ti	2.81187400	21.17113214	1.10336000
Ti	0.90594400	15.92761607	1.10336000
Ti	0.90594400	26.41466214	1.10336000
Ti	4.71781400	15.92761607	1.10336000
Ti	4.71781400	26.41466214	1.10336000
Ti	0.90594400	12.95945607	1.99114000
Ti	0.90594400	23.44650214	1.99114000
Ti	4.71781400	12.95945607	1.99114000
Ti	4.71781400	23.44650214	1.99114000
Ti	2.81187400	18.20298607	1.99115000
Ti	2.81187400	28.69003214	1.99115000
O	2.81187400	19.30006607	0.37332000
O	2.81187400	29.78711214	0.37332000
O	0.90594400	14.05653607	0.37332000
O	0.90594400	24.54358214	0.37332000
O	4.71781400	14.05653607	0.37332000
O	4.71781400	24.54358214	0.37332000
O	0.90594400	11.08838607	1.26110000
O	0.90594400	21.57543214	1.26110000
O	4.71781400	11.08838607	1.26110000
O	4.71781400	21.57543214	1.26110000
O	2.81187400	16.33190607	1.26111000
O	2.81187400	26.81895214	1.26111000
O	2.81187400	12.55516607	1.83340000
O	2.81187400	23.04221214	1.83340000
O	0.90594400	17.79868607	1.83340000
O	0.90594400	28.28573214	1.83340000
O	4.71781400	17.79868607	1.83340000
O	4.71781400	28.28573214	1.83340000
O	0.90594400	14.83053607	2.72118000
O	0.90594400	25.31758214	2.72118000
O	4.71781400	14.83053607	2.72118000
O	4.71781400	25.31758214	2.72118000
O	2.81187400	20.07405607	2.72118000
O	2.81187400	30.56110214	2.72118000
Ti	6.62374588	10.68408607	1.10336000
Ti	6.62374588	21.17113214	1.10336000
Ti	21.87123776	10.68408607	1.10336000
Ti	21.87123776	21.17113214	1.10336000
Ti	8.52968588	15.92761607	1.10336000
Ti	8.52968588	26.41466214	1.10336000
Ti	23.77717776	15.92761607	1.10336000
Ti	23.77717776	26.41466214	1.10336000
Ti	8.52968588	12.95945607	1.99114000
Ti	8.52968588	23.44650214	1.99114000
Ti	23.77717776	12.95945607	1.99114000
Ti	23.77717776	23.44650214	1.99114000
Ti	6.62374588	18.20298607	1.99115000
Ti	6.62374588	28.69003214	1.99115000
Ti	21.87123776	18.20298607	1.99115000
Ti	21.87123776	28.69003214	1.99115000
Ti	10.43561588	10.68408607	1.10336000
Ti	10.43561588	21.17113214	1.10336000
Ti	25.68310776	10.68408607	1.10336000
Ti	25.68310776	21.17113214	1.10336000
Ti	14.24749588	10.68408607	1.10336000
Ti	14.24749588	21.17113214	1.10336000
Ti	29.49498776	10.68408607	1.10336000
Ti	29.49498776	21.17113214	1.10336000
Ti	18.05936588	10.68408607	1.10336000
Ti	18.05936588	21.17113214	1.10336000
Ti	12.34155588	15.92761607	1.10336000
Ti	12.34155588	26.41466214	1.10336000
Ti	27.58904776	15.92761607	1.10336000
Ti	27.58904776	26.41466214	1.10336000
Ti	16.15343588	15.92761607	1.10336000
Ti	16.15343588	26.41466214	1.10336000
Ti	19.96530588	15.92761607	1.10336000
Ti	19.96530588	26.41466214	1.10336000
Ti	12.34155588	12.95945607	1.99114000
Ti	12.34155588	23.44650214	1.99114000
Ti	27.58904776	12.95945607	1.99114000
Ti	27.58904776	23.44650214	1.99114000
Ti	16.15343588	12.95945607	1.99114000
Ti	16.15343588	23.44650214	1.99114000
Ti	19.96530588	12.95945607	1.99114000
Ti	19.96530588	23.44650214	1.99114000
Ti	10.43561588	18.20298607	1.99115000
Ti	10.43561588	28.69003214	1.99115000
Ti	25.68310776	18.20298607	1.99115000
Ti	25.68310776	28.69003214	1.99115000
Ti	14.24749588	18.20298607	1.99115000
Ti	14.24749588	28.69003214	1.99115000
Ti	29.49498776	18.20298607	1.99115000
Ti	29.49498776	28.69003214	1.99115000
Ti	18.05936588	18.20298607	1.99115000
Ti	18.05936588	28.69003214	1.99115000
O	6.62374588	19.30006607	0.37332000
O	6.62374588	29.78711214	0.37332000
O	21.87123776	19.30006607	0.37332000
O	21.87123776	29.78711214	0.37332000
O	8.52968588	14.05653607	0.37332000
O	8.52968588	24.54358214	0.37332000
O	23.77717776	14.05653607	0.37332000
O	23.77717776	24.54358214	0.37332000
O	8.52968588	11.08838607	1.26110000
O	8.52968588	21.57543214	1.26110000
O	23.77717776	11.08838607	1.26110000
O	23.77717776	21.57543214	1.26110000
O	6.62374588	16.33190607	1.26111000
O	6.62374588	26.81895214	1.26111000
O	21.87123776	16.33190607	1.26111000
O	21.87123776	26.81895214	1.26111000
O	6.62374588	12.55516607	1.83340000
O	6.62374588	23.04221214	1.83340000
O	21.87123776	12.55516607	1.83340000
O	21.87123776	23.04221214	1.83340000
O	8.52968588	17.79868607	1.83340000
O	8.52968588	28.28573214	1.83340000
O	23.77717776	17.79868607	1.83340000
O	23.77717776	28.28573214	1.83340000
O	8.52968588	14.83053607	2.72118000
O	8.52968588	25.31758214	2.72118000
O	23.77717776	14.83053607	2.72118000
O	23.77717776	25.31758214	2.72118000
O	6.62374588	20.07405607	2.72118000
O	6.62374588	30.56110214	2.72118000
O	21.87123776	20.07405607	2.72118000
O	21.87123776	30.56110214	2.72118000
O	10.43561588	19.30006607	0.37332000
O	10.43561588	29.78711214	0.37332000
O	25.68310776	19.30006607	0.37332000
O	25.68310776	29.78711214	0.37332000
O	14.24749588	19.30006607	0.37332000
O	14.24749588	29.78711214	0.37332000
O	29.49498776	19.30006607	0.37332000
O	29.49498776	29.78711214	0.37332000
O	18.05936588	19.30006607	0.37332000
O	18.05936588	29.78711214	0.37332000
O	12.34155588	14.05653607	0.37332000
O	12.34155588	24.54358214	0.37332000
O	27.58904776	14.05653607	0.37332000
O	27.58904776	24.54358214	0.37332000
O	16.15343588	14.05653607	0.37332000
O	16.15343588	24.54358214	0.37332000
O	19.96530588	14.05653607	0.37332000
O	19.96530588	24.54358214	0.37332000
O	12.34155588	11.08838607	1.26110000
O	12.34155588	21.57543214	1.26110000
O	27.58904776	11.08838607	1.26110000
O	27.58904776	21.57543214	1.26110000
O	16.15343588	11.08838607	1.26110000
O	16.15343588	21.57543214	1.26110000
O	19.96530588	11.08838607	1.26110000
O	19.96530588	21.57543214	1.26110000
O	10.43561588	16.33190607	1.26111000
O	10.43561588	26.81895214	1.26111000
O	25.68310776	16.33190607	1.26111000
O	25.68310776	26.81895214	1.26111000
O	14.24749588	16.33190607	1.26111000
O	14.24749588	26.81895214	1.26111000
O	29.49498776	16.33190607	1.26111000
O	29.49498776	26.81895214	1.26111000
O	18.05936588	16.33190607	1.26111000
O	18.05936588	26.81895214	1.26111000
O	10.43561588	12.55516607	1.83340000
O	10.43561588	23.04221214	1.83340000
O	25.68310776	12.55516607	1.83340000
O	25.68310776	23.04221214	1.83340000
O	14.24749588	12.55516607	1.83340000
O	14.24749588	23.04221214	1.83340000
O	29.49498776	12.55516607	1.83340000
O	29.49498776	23.04221214	1.83340000
O	18.05936588	12.55516607	1.83340000
O	18.05936588	23.04221214	1.83340000
O	12.34155588	17.79868607	1.83340000
O	12.34155588	28.28573214	1.83340000
O	27.58904776	17.79868607	1.83340000
O	27.58904776	28.28573214	1.83340000
O	16.15343588	17.79868607	1.83340000
O	16.15343588	28.28573214	1.83340000
O	19.96530588	17.79868607	1.83340000
O	19.96530588	28.28573214	1.83340000
O	12.34155588	14.83053607	2.72118000
O	12.34155588	25.31758214	2.72118000
O	27.58904776	14.83053607	2.72118000
O	27.58904776	25.31758214	2.72118000
O	16.15343588	14.83053607	2.72118000
O	16.15343588	25.31758214	2.72118000
O	19.96530588	14.83053607	2.72118000
O	19.96530588	25.31758214	2.72118000
O	10.43561588	20.07405607	2.72118000
O	10.43561588	30.56110214	2.72118000
O	25.68310776	20.07405607	2.72118000
O	25.68310776	30.56110214	2.72118000
O	14.24749588	20.07405607	2.72118000
O	14.24749588	30.56110214	2.72118000
O	29.49498776	20.07405607	2.72118000
O	29.49498776	30.56110214	2.72118000
O	18.05936588	20.07405607	2.72118000
O	18.05936588	30.56110214	2.72118000
Ti	6.56045829	9.33257354	4.78332768
Ti	6.63116130	6.37812383	5.46324402
Ti	2.71978198	9.23647443	4.72979671
Ti	0.91509217	3.95817638	4.77090621
Ti	4.75903617	4.12038006	4.68897545
Ti	0.88204559	1.01205577	5.37146301
Ti	4.75637699	1.15631980	5.43250561
Ti	2.81670215	6.30693028	5.39122358
O	6.53301197	7.43577989	3.95564949
O	6.67100027	4.60978438	4.77063846
O	6.65188147	0.60394171	5.64406336
O	6.72872169	8.19742372	6.41866772
O	2.64213366	7.41462642	3.90431175
O	0.80583375	2.03444724	3.86379650
O	4.77880268	2.19482818	3.92195349
O	0.86208822	9.64499274	4.88323396
O	4.70737507	9.75199782	4.52294309
O	2.87267500	4.51147203	4.64074258
O	2.85406713	0.51403406	5.75132818
O	0.97755941	5.77629595	5.84477878
O	4.74407023	6.01508386	5.66723249
O	0.88518918	2.67186697	6.39725246
O	4.91576298	2.88564438	6.32744511
O	2.83051570	8.09246638	6.30715333
Ti	21.93459379	9.15142074	4.70800844
Ti	8.49892536	3.98938812	4.77198046
Ti	23.79871499	3.94392410	4.74360495
Ti	8.59629484	1.13186893	5.55720482
Ti	23.76527871	1.04209490	5.53858442
Ti	21.87221398	6.26508023	5.55629610
Ti	10.41174762	9.16367966	4.80491345
Ti	25.65094031	9.14452514	4.80829553
Ti	14.25395329	9.25003727	4.77919738
Ti	29.42122811	9.17073076	4.72588640
Ti	18.02447093	9.17422289	4.82167176
Ti	12.28955223	3.97705223	4.77995516
Ti	27.62543410	3.92712446	4.75433701
Ti	16.10796888	4.00145125	4.80019194
Ti	20.06688472	4.02132928	4.72048177
Ti	12.31929603	1.06575307	5.61118279
Ti	27.61032435	1.03608948	5.53962260
Ti	16.10809654	1.07899063	5.56975276
Ti	19.92687854	1.11981325	5.53093392
Ti	10.45697321	6.27952302	5.47540193
Ti	25.77133932	6.20271934	5.48783452
Ti	14.23888665	6.38286001	5.54231131
Ti	29.51768418	6.23766164	5.49933393
Ti	18.00182594	6.25078986	5.46085156
O	21.85152446	7.25262117	3.92058524
O	8.70054443	2.05252939	3.92448432
O	23.82760658	2.03066107	3.96714205
O	8.53748406	9.70194948	4.77362968
O	23.78943734	9.57633224	4.79523208
O	21.87118941	4.42007881	4.72262266
O	21.77890402	0.49897850	5.86416469
O	8.54561783	5.84105805	5.73341161
O	23.75754587	5.77435366	5.76103877
O	8.46295669	2.90198796	6.38847359
O	23.44806623	2.68718542	6.35939669
O	21.77902537	8.02155406	6.36047762
O	10.45610499	7.41917498	3.92947790
O	25.66096254	7.32120679	3.97342116
O	14.48326863	7.38395724	3.96810870
O	29.51174932	7.30220947	3.92614785
O	18.05071143	7.24117413	3.94379676
O	12.36081535	2.05011895	4.00863808
O	27.57278424	1.96522869	3.92772336
O	15.99227321	2.11781286	3.96786889
O	19.97118640	2.07128624	3.98395620
O	12.26834862	9.53942715	4.90455130
O	27.57583312	9.73591094	4.59324090
O	16.18255327	9.63033702	4.80978391
O	19.92261140	9.66945934	4.76654204
O	10.43246421	4.51796460	4.65576160
O	25.65960817	4.21472186	4.88194914
O	14.19838839	4.42262261	4.89783764
O	29.51380151	4.37233228	4.72081410
O	18.00784994	4.38735327	4.76515442
O	10.41757518	0.46957584	6.01415073
O	25.66340485	0.59365193	5.74748763
O	14.23031290	1.00296843	6.13865855
O	29.54136665	0.53754284	5.70048387
O	18.03714734	0.61818925	5.68689237
O	12.29527491	5.89980546	5.74617193
O	27.64230783	5.80733896	5.86733996
O	16.15548239	5.91851836	5.84355683
O	19.89801101	5.86383390	5.80626747
O	12.08473097	3.02653802	6.45598233
O	27.76948433	2.78764530	6.32091297
O	16.37387650	2.80890674	6.41073154
O	19.90921535	2.85430671	6.42536324
O	10.47124056	7.97385340	6.39670361
O	25.89243393	7.94219919	6.29139001
O	14.39045140	8.13016109	6.42330337
O	29.41660136	8.11152995	6.35305825
O	18.02821287	7.92480367	6.44074757
Ti	6.58514296	19.65710277	4.64536830
Ti	6.65143687	30.27258026	4.70118047
Ti	6.62835524	16.74960212	5.61475090
Ti	6.45611715	27.38595494	5.52754981
Ti	2.88053713	19.80239378	4.74450224
Ti	2.88013563	30.11403185	4.84536059
Ti	0.85266607	14.40022157	4.62891542
Ti	0.84918423	24.89535016	4.72911526
Ti	4.66532089	14.48715709	4.80934773
Ti	4.66259769	25.00211414	4.66481898
Ti	0.87147581	11.55550692	5.54367811
Ti	0.98792982	22.02163455	5.55772956
Ti	4.61821494	11.57184342	5.47860699
Ti	4.90095537	22.15301845	5.60756233
Ti	2.70522279	16.95784103	5.67389699
Ti	2.81984427	27.23596642	5.53905624
O	6.61608995	17.82946471	3.83963490
O	6.56519725	28.33814837	3.89168583
O	6.51211100	14.94619233	4.80874067
O	6.58350424	25.49573467	4.80820936
O	6.57647373	11.10178939	5.77379876
O	6.70736690	22.08216274	6.15551767
O	6.65114138	18.54846093	6.19804104
O	6.55573474	29.17296622	6.27711069
O	2.78272283	17.88341448	4.05278671
O	2.79159025	28.19332897	3.91280156
O	0.85328777	12.50038255	3.90385573
O	0.86426269	23.03831215	3.91571562
O	4.64143501	12.64072115	3.86234638
O	4.93371706	23.15477506	4.00431488
O	0.98042662	20.04554639	4.81888062
O	0.99540862	30.57749516	4.76966656
O	4.85207546	20.29469860	4.88455104
O	4.70502136	30.72849092	4.71177109
O	2.60170178	15.11802475	4.87431997
O	2.76321671	25.45742606	4.63545918
O	2.77558360	11.10037749	5.71180696
O	2.89684046	21.56421437	5.83924238
O	0.82568534	16.83505325	6.22449020
O	0.91268876	26.78692554	5.73749109
O	4.56732066	16.17909267	5.86845779
O	4.70298124	26.72500633	5.94143508
O	0.91726610	13.29712188	6.35375060
O	0.94290767	23.79604120	6.30239729
O	4.31340957	13.32584099	6.30536390
O	4.51122102	23.87252106	6.31670512
O	3.04837628	18.64170373	6.48348670
O	2.94121040	28.96197125	6.43270070
Ti	21.87598633	19.62263344	4.68042837
Ti	21.79012440	30.26191489	4.77002012
Ti	8.44076567	14.41992781	4.71924490
Ti	8.47300601	25.05730892	4.67699193
Ti	23.90029169	14.36347035	4.72217230
Ti	23.89599466	24.93427613	4.74938372
Ti	8.44587618	11.51136356	5.57724031
Ti	8.58539911	22.13222218	5.46997776
Ti	23.81702545	11.50614188	5.43517617
Ti	23.78119911	22.05721181	5.44638952
Ti	21.94566060	16.75955807	5.51727244
Ti	21.85979247	27.20229671	5.42544375
Ti	10.38446038	19.82955207	4.71927760
Ti	10.44225309	30.25792743	4.80183309
Ti	25.64730302	19.87258366	4.93273361
Ti	25.71951401	30.18203573	4.79483541
Ti	14.25819870	19.63462871	4.68067413
Ti	14.21317791	29.98006667	4.72657889
Ti	29.54399501	19.84303599	4.65608909
Ti	29.55595846	30.19509743	4.67302037
Ti	18.09315501	19.63514082	4.83047616
Ti	17.88193486	30.17179389	4.77246613
Ti	12.38059126	14.46170423	4.85050432
Ti	12.28838413	24.91952710	4.74722155
Ti	27.59482919	14.55602559	4.68371076
Ti	27.55854045	24.93771670	4.72375483
Ti	16.10585801	14.47595482	4.79381763
Ti	16.08761862	24.85976851	4.86278322
Ti	20.03148788	14.48205955	4.78338016
Ti	19.97080377	24.98172871	4.87358335
Ti	12.25764832	11.55508003	5.57579623
Ti	12.38960991	21.95925322	5.37537913
Ti	27.54959995	11.61577341	5.37392414
Ti	27.64410490	22.04948803	5.60914332
Ti	16.19098314	11.57516029	5.49987462
Ti	16.08720597	21.92804029	5.50634635
Ti	20.00897280	11.52798180	5.41164471
Ti	19.88645663	22.08035578	5.50392344
Ti	10.38819582	16.75189276	5.25070389
Ti	10.29203663	27.31162335	5.48841540
Ti	25.68955946	16.86387829	5.37845879
Ti	25.68300063	27.28599611	5.47544284
Ti	14.19800595	16.76758824	5.78585309
Ti	14.22029283	27.22518149	5.52105387
Ti	29.41130730	16.92602589	5.48973457
Ti	29.46936341	27.23212053	5.51259068
Ti	18.25933330	16.82367645	5.61499589
Ti	17.97507315	27.19534633	5.52293539
O	21.96288357	17.66739764	3.81230418
O	21.90583519	28.43443844	3.91131644
O	8.45368395	12.55449169	3.99330462
O	8.45094641	23.07870018	3.86348372
O	23.90399006	12.61008050	3.95665029
O	23.86598162	23.16080198	3.91421237
O	8.41412708	20.31010897	4.72735520
O	8.55131488	30.67036325	4.80428671
O	23.76942340	20.11357518	4.79480657
O	23.75575059	30.51027509	4.70688557
O	22.01750209	14.82121232	4.63237736
O	21.86756329	25.33710741	4.76555630
O	21.93221132	10.95888673	5.60676932
O	21.87747844	21.59177630	5.54773844
O	8.48004111	16.27630907	5.68254473
O	8.37010591	26.86464850	5.84012793
O	23.85977385	16.30970080	5.78366064
O	23.77923043	26.83235481	5.61633088
O	8.57920304	13.30061084	6.38211489
O	8.63093080	23.97713729	6.26421393
O	23.86895101	13.20807800	6.36000651
O	23.69495842	23.80157141	6.33009700
O	22.08008906	18.52346024	6.26943768
O	21.70830757	28.91009185	6.36554505
O	10.24407753	17.93637662	3.90349848
O	10.39722033	28.37074924	3.91034502
O	25.49641953	17.83387477	3.86403351
O	25.57754422	28.39680118	3.93087780
O	14.25997238	17.78676422	4.00884276
O	14.15119007	28.16369917	3.95649949
O	29.65144352	17.92750736	3.93491105
O	29.23428958	28.29232679	3.93376194
O	18.29160289	17.87691601	3.98977253
O	17.95238853	28.22693899	3.90801706
O	12.02075621	12.65048805	3.98599116
O	12.39240617	23.10684720	3.88607314
O	27.63886864	12.68849802	3.94325137
O	27.40131426	23.04053454	3.91965538
O	16.26975308	12.65698091	3.91533181
O	16.24984759	23.06265340	3.97972739
O	20.24751867	12.62443431	3.92165868
O	20.01941600	23.13276774	3.96338441
O	12.33087693	19.97439851	4.66695965
O	12.44752089	30.68027520	4.90737254
O	27.60265935	20.22788316	4.60750456
O	27.67468343	30.59378325	4.87908695
O	16.14310690	20.13851507	4.84304183
O	15.96310400	30.66732595	4.85938493
O	19.97553475	20.11712763	4.97574993
O	19.87127784	30.69731851	4.71065836
O	10.39560073	14.76925033	4.96884406
O	10.40917039	25.51083072	4.61208232
O	25.71478459	14.99631213	4.51428228
O	25.70634838	25.46135897	4.69562609
O	14.25698565	14.88566951	4.94426436
O	14.19136964	25.35108200	4.75218857
O	29.50871143	15.01620489	4.81482242
O	29.45095040	25.39932022	4.93946749
O	18.11572479	14.86578939	4.80208010
O	17.94038078	25.28014364	4.86231587
O	10.40596284	10.95951478	5.86660012
O	10.46998200	21.50548404	5.76018289
O	25.67658963	11.03302167	5.68946361
O	25.67583736	21.61095692	5.74238621
O	14.31578540	11.02554272	5.70985098
O	14.17213873	21.35977134	5.79667698
O	29.39399051	11.11655424	5.70849153
O	29.55793803	21.46134367	5.66002833
O	18.12550561	10.97820259	5.94588028
O	18.03628930	21.49218417	5.82202097
O	12.24795736	16.34996620	5.64033518
O	12.18575657	26.69127817	5.86389971
O	27.58932330	16.39539092	5.71082429
O	27.52521226	26.77139819	5.82171904
O	16.17292115	16.39332293	5.46949836
O	16.07256616	26.68585647	5.98000725
O	20.06138017	16.29964305	5.80406294
O	19.93052565	26.86408124	5.71981840
O	12.55334787	13.26923489	6.42076494
O	12.38969935	23.75808602	6.21633112
O	27.53441374	13.29189826	6.36157221
O	27.58927186	23.85661429	6.27617752
O	16.27967554	13.22145059	6.40721186
O	15.87861862	23.62905164	6.50896016
O	19.96833942	13.27602628	6.31423369
O	20.02598595	23.80347751	6.39885571
O	10.29491638	18.52585068	6.26857670
O	10.39388503	29.01608805	6.41084208
O	25.68032720	18.50972938	6.29554342
O	25.66650985	29.11372763	6.35856254
O	14.19033592	18.65734740	6.44927192
O	14.17405070	28.90313480	6.41367907
O	29.27305893	18.68634009	6.23666990
O	29.64067685	29.08424878	6.24176238
O	17.92085106	18.49178153	6.37910969
O	17.97894577	29.05671868	6.33918672
H	12.68763289	14.60005420	7.69437269
H	12.34132784	15.36633568	10.91653293
H	15.76439061	17.58781938	9.36150932
O	14.47853948	16.21849457	7.70688124
O	12.81569909	14.96003953	8.63065301
C	13.68950572	15.87158996	8.76948824
C	13.93211762	16.48537521	10.05396065
C	13.12655555	16.09871033	11.15832329
C	15.02726139	17.40303793	10.15164743
N	12.98598680	19.96186508	15.35114892
N	15.85114159	22.01398953	17.33159898
N	15.82066348	20.32536747	14.78717178
N	12.99579756	21.46855881	17.94089340
C	21.55128778	20.29956674	16.28898864
C	14.87468142	24.80568044	22.53043997
C	7.24790327	20.89324199	16.85141026
C	19.38671518	21.31657819	15.82346682
C	14.70914278	24.01757540	20.26471011
C	9.56754767	20.21139841	17.07426939
C	21.35481532	22.35919813	14.93531033
C	14.94028658	26.42646088	20.75696060
C	7.75102600	18.64020461	17.58077475
C	14.26854791	18.83596927	13.57370733
C	17.88915514	21.26604455	15.95353548
C	14.51756923	22.98784906	19.16889475
C	11.04502187	20.42423579	16.88602546
C	15.53214072	19.32004786	13.89727026
C	17.20796591	20.38996112	15.03304790
C	13.28855410	22.41504973	18.84799410
C	11.69169159	21.13095602	17.91761947
C	16.81698955	18.82099598	13.46435249
C	17.81165797	19.50366364	14.11453236
C	12.06270085	22.59168421	19.63390424
C	11.06365567	21.94819020	18.97267412
C	13.03625188	19.22855932	14.20513700
C	17.24792256	21.98412243	16.96461660
C	15.75207064	22.68707256	18.50135183
C	11.63198844	20.07047842	15.64332513
C	11.74837738	18.82384503	13.73607146
C	17.90549717	22.89229038	17.89947804
C	16.98118659	23.30387511	18.87190988
C	10.86219717	19.35471119	14.66254980
H	11.56921569	18.16244786	12.83539441
H	18.95427073	23.21889552	17.86505833
H	17.11001246	23.96957211	19.71993208
H	9.79716811	19.24930195	14.62593313
H	16.92854951	17.99973968	12.74337472
H	18.85983783	19.47352411	13.97622240
H	11.96452139	23.06996763	20.63367978
H	10.00295738	21.87842415	19.15131380
H	21.75133676	23.06784828	14.19276858
H	14.99963999	27.44350564	20.44832546
H	7.45838939	17.68729269	17.99273930
H	22.25675350	19.52590007	16.64350960
H	14.79858453	24.53566464	23.57909711
H	6.53080730	21.65842414	16.65749779
H	15.15946765	20.96435549	15.31206757
H	13.71859985	21.06870312	17.29946165
C	23.58922462	21.67885121	15.56067004
H	23.90626302	22.28987126	14.67991656
H	24.20753899	20.71337939	15.61047294
H	23.85724084	22.21808680	16.45318671
C	19.47504519	19.01849669	16.96999515
H	20.09570979	18.16613553	16.66498128
H	18.41222823	18.92855136	16.60341374
H	19.41116726	19.12775919	18.05603294
C	19.13152735	23.42761459	14.48950487
H	19.75683641	24.19841774	14.06765919
H	18.55115343	23.97695889	15.22242523
H	18.51059739	23.03671705	13.72901631
C	10.16456207	17.87835517	17.65544632
H	9.69906612	16.95577883	18.09693223
H	11.03756180	18.34980753	18.18278954
H	10.58435464	17.62737328	16.67090734
C	9.04404888	22.49465984	16.22880108
H	8.34676463	23.18642128	16.70276876
H	8.89241602	22.60406822	15.15915718
H	10.12130556	22.60156628	16.34255736
C	5.40208183	19.43831366	17.80030559
H	5.43592527	18.91253558	18.72466931
H	4.88527469	18.67611721	17.14632598
H	4.92709581	20.34829351	17.96767133
C	14.63702294	25.78568110	18.41370194
H	13.56225611	26.01193617	18.21087343
H	15.05070796	25.07787376	17.68772357
H	15.14117580	26.75994225	18.21532285
C	14.81916157	22.30428932	22.10649641
H	14.82549778	21.66190114	21.23640443
H	13.91239167	22.16245407	22.70103088
H	15.75955258	22.05780516	22.70567626
C	14.70351888	27.31196272	23.07022197
H	14.45641821	28.27194284	22.53162142
H	15.62194613	27.44248453	23.66227171
H	13.84715638	27.11903590	23.73644090
C	22.15862373	21.42015663	15.63110749
C	20.13353604	20.22905224	16.34235669
C	19.95416093	22.34944868	15.10330858
C	14.83241535	25.38755437	19.82759257
C	14.84335314	23.70546257	21.60924941
C	14.86003991	26.15381764	22.17207159
C	9.10826158	18.90327670	17.42698529
C	8.62551139	21.14478177	16.68610342
C	6.82407124	19.64058242	17.36809801
H	12.87013391	16.47992031	13.32117357
H	15.61134116	19.17663937	11.27973870
C	14.22926205	17.91518908	12.38727210
C	13.34047762	16.77916001	12.33643670
C	15.03829793	18.24017508	11.28764123

Ti O H C N 0
6-31G*
****

