%chk=f00019085.chk
%mem=24GB
%nproc=12
#p b3lyp/6-31G*

title

0 1
Ti	2.81187400	0.19704000	1.10336000
Ti	0.90594400	5.44057000	1.10336000
Ti	4.71781400	5.44057000	1.10336000
Ti	0.90594400	2.47241000	1.99114000
Ti	4.71781400	2.47241000	1.99114000
Ti	2.81187400	7.71594000	1.99115000
O	2.81187400	8.81302000	0.37332000
O	0.90594400	3.56949000	0.37332000
O	4.71781400	3.56949000	0.37332000
O	0.90594400	0.60134000	1.26110000
O	4.71781400	0.60134000	1.26110000
O	2.81187400	5.84486000	1.26111000
O	2.81187400	2.06812000	1.83340000
O	0.90594400	7.31164000	1.83340000
O	4.71781400	7.31164000	1.83340000
O	0.90594400	4.34349000	2.72118000
O	4.71781400	4.34349000	2.72118000
O	2.81187400	9.58701000	2.72118000
Ti	6.62374588	0.19704000	1.10336000
Ti	21.87123776	0.19704000	1.10336000
Ti	8.52968588	5.44057000	1.10336000
Ti	23.77717776	5.44057000	1.10336000
Ti	8.52968588	2.47241000	1.99114000
Ti	23.77717776	2.47241000	1.99114000
Ti	6.62374588	7.71594000	1.99115000
Ti	21.87123776	7.71594000	1.99115000
Ti	10.43561588	0.19704000	1.10336000
Ti	25.68310776	0.19704000	1.10336000
Ti	14.24749588	0.19704000	1.10336000
Ti	29.49498776	0.19704000	1.10336000
Ti	18.05936588	0.19704000	1.10336000
Ti	12.34155588	5.44057000	1.10336000
Ti	27.58904776	5.44057000	1.10336000
Ti	16.15343588	5.44057000	1.10336000
Ti	19.96530588	5.44057000	1.10336000
Ti	12.34155588	2.47241000	1.99114000
Ti	27.58904776	2.47241000	1.99114000
Ti	16.15343588	2.47241000	1.99114000
Ti	19.96530588	2.47241000	1.99114000
Ti	10.43561588	7.71594000	1.99115000
Ti	25.68310776	7.71594000	1.99115000
Ti	14.24749588	7.71594000	1.99115000
Ti	29.49498776	7.71594000	1.99115000
Ti	18.05936588	7.71594000	1.99115000
O	6.62374588	8.81302000	0.37332000
O	21.87123776	8.81302000	0.37332000
O	8.52968588	3.56949000	0.37332000
O	23.77717776	3.56949000	0.37332000
O	8.52968588	0.60134000	1.26110000
O	23.77717776	0.60134000	1.26110000
O	6.62374588	5.84486000	1.26111000
O	21.87123776	5.84486000	1.26111000
O	6.62374588	2.06812000	1.83340000
O	21.87123776	2.06812000	1.83340000
O	8.52968588	7.31164000	1.83340000
O	23.77717776	7.31164000	1.83340000
O	8.52968588	4.34349000	2.72118000
O	23.77717776	4.34349000	2.72118000
O	6.62374588	9.58701000	2.72118000
O	21.87123776	9.58701000	2.72118000
O	10.43561588	8.81302000	0.37332000
O	25.68310776	8.81302000	0.37332000
O	14.24749588	8.81302000	0.37332000
O	29.49498776	8.81302000	0.37332000
O	18.05936588	8.81302000	0.37332000
O	12.34155588	3.56949000	0.37332000
O	27.58904776	3.56949000	0.37332000
O	16.15343588	3.56949000	0.37332000
O	19.96530588	3.56949000	0.37332000
O	12.34155588	0.60134000	1.26110000
O	27.58904776	0.60134000	1.26110000
O	16.15343588	0.60134000	1.26110000
O	19.96530588	0.60134000	1.26110000
O	10.43561588	5.84486000	1.26111000
O	25.68310776	5.84486000	1.26111000
O	14.24749588	5.84486000	1.26111000
O	29.49498776	5.84486000	1.26111000
O	18.05936588	5.84486000	1.26111000
O	10.43561588	2.06812000	1.83340000
O	25.68310776	2.06812000	1.83340000
O	14.24749588	2.06812000	1.83340000
O	29.49498776	2.06812000	1.83340000
O	18.05936588	2.06812000	1.83340000
O	12.34155588	7.31164000	1.83340000
O	27.58904776	7.31164000	1.83340000
O	16.15343588	7.31164000	1.83340000
O	19.96530588	7.31164000	1.83340000
O	12.34155588	4.34349000	2.72118000
O	27.58904776	4.34349000	2.72118000
O	16.15343588	4.34349000	2.72118000
O	19.96530588	4.34349000	2.72118000
O	10.43561588	9.58701000	2.72118000
O	25.68310776	9.58701000	2.72118000
O	14.24749588	9.58701000	2.72118000
O	29.49498776	9.58701000	2.72118000
O	18.05936588	9.58701000	2.72118000
Ti	2.81187400	10.68408607	1.10336000
Ti	2.81187400	21.17113214	1.10336000
Ti	0.90594400	15.92761607	1.10336000
Ti	0.90594400	26.41466214	1.10336000
Ti	4.71781400	15.92761607	1.10336000
Ti	4.71781400	26.41466214	1.10336000
Ti	0.90594400	12.95945607	1.99114000
Ti	0.90594400	23.44650214	1.99114000
Ti	4.71781400	12.95945607	1.99114000
Ti	4.71781400	23.44650214	1.99114000
Ti	2.81187400	18.20298607	1.99115000
Ti	2.81187400	28.69003214	1.99115000
O	2.81187400	19.30006607	0.37332000
O	2.81187400	29.78711214	0.37332000
O	0.90594400	14.05653607	0.37332000
O	0.90594400	24.54358214	0.37332000
O	4.71781400	14.05653607	0.37332000
O	4.71781400	24.54358214	0.37332000
O	0.90594400	11.08838607	1.26110000
O	0.90594400	21.57543214	1.26110000
O	4.71781400	11.08838607	1.26110000
O	4.71781400	21.57543214	1.26110000
O	2.81187400	16.33190607	1.26111000
O	2.81187400	26.81895214	1.26111000
O	2.81187400	12.55516607	1.83340000
O	2.81187400	23.04221214	1.83340000
O	0.90594400	17.79868607	1.83340000
O	0.90594400	28.28573214	1.83340000
O	4.71781400	17.79868607	1.83340000
O	4.71781400	28.28573214	1.83340000
O	0.90594400	14.83053607	2.72118000
O	0.90594400	25.31758214	2.72118000
O	4.71781400	14.83053607	2.72118000
O	4.71781400	25.31758214	2.72118000
O	2.81187400	20.07405607	2.72118000
O	2.81187400	30.56110214	2.72118000
Ti	6.62374588	10.68408607	1.10336000
Ti	6.62374588	21.17113214	1.10336000
Ti	21.87123776	10.68408607	1.10336000
Ti	21.87123776	21.17113214	1.10336000
Ti	8.52968588	15.92761607	1.10336000
Ti	8.52968588	26.41466214	1.10336000
Ti	23.77717776	15.92761607	1.10336000
Ti	23.77717776	26.41466214	1.10336000
Ti	8.52968588	12.95945607	1.99114000
Ti	8.52968588	23.44650214	1.99114000
Ti	23.77717776	12.95945607	1.99114000
Ti	23.77717776	23.44650214	1.99114000
Ti	6.62374588	18.20298607	1.99115000
Ti	6.62374588	28.69003214	1.99115000
Ti	21.87123776	18.20298607	1.99115000
Ti	21.87123776	28.69003214	1.99115000
Ti	10.43561588	10.68408607	1.10336000
Ti	10.43561588	21.17113214	1.10336000
Ti	25.68310776	10.68408607	1.10336000
Ti	25.68310776	21.17113214	1.10336000
Ti	14.24749588	10.68408607	1.10336000
Ti	14.24749588	21.17113214	1.10336000
Ti	29.49498776	10.68408607	1.10336000
Ti	29.49498776	21.17113214	1.10336000
Ti	18.05936588	10.68408607	1.10336000
Ti	18.05936588	21.17113214	1.10336000
Ti	12.34155588	15.92761607	1.10336000
Ti	12.34155588	26.41466214	1.10336000
Ti	27.58904776	15.92761607	1.10336000
Ti	27.58904776	26.41466214	1.10336000
Ti	16.15343588	15.92761607	1.10336000
Ti	16.15343588	26.41466214	1.10336000
Ti	19.96530588	15.92761607	1.10336000
Ti	19.96530588	26.41466214	1.10336000
Ti	12.34155588	12.95945607	1.99114000
Ti	12.34155588	23.44650214	1.99114000
Ti	27.58904776	12.95945607	1.99114000
Ti	27.58904776	23.44650214	1.99114000
Ti	16.15343588	12.95945607	1.99114000
Ti	16.15343588	23.44650214	1.99114000
Ti	19.96530588	12.95945607	1.99114000
Ti	19.96530588	23.44650214	1.99114000
Ti	10.43561588	18.20298607	1.99115000
Ti	10.43561588	28.69003214	1.99115000
Ti	25.68310776	18.20298607	1.99115000
Ti	25.68310776	28.69003214	1.99115000
Ti	14.24749588	18.20298607	1.99115000
Ti	14.24749588	28.69003214	1.99115000
Ti	29.49498776	18.20298607	1.99115000
Ti	29.49498776	28.69003214	1.99115000
Ti	18.05936588	18.20298607	1.99115000
Ti	18.05936588	28.69003214	1.99115000
O	6.62374588	19.30006607	0.37332000
O	6.62374588	29.78711214	0.37332000
O	21.87123776	19.30006607	0.37332000
O	21.87123776	29.78711214	0.37332000
O	8.52968588	14.05653607	0.37332000
O	8.52968588	24.54358214	0.37332000
O	23.77717776	14.05653607	0.37332000
O	23.77717776	24.54358214	0.37332000
O	8.52968588	11.08838607	1.26110000
O	8.52968588	21.57543214	1.26110000
O	23.77717776	11.08838607	1.26110000
O	23.77717776	21.57543214	1.26110000
O	6.62374588	16.33190607	1.26111000
O	6.62374588	26.81895214	1.26111000
O	21.87123776	16.33190607	1.26111000
O	21.87123776	26.81895214	1.26111000
O	6.62374588	12.55516607	1.83340000
O	6.62374588	23.04221214	1.83340000
O	21.87123776	12.55516607	1.83340000
O	21.87123776	23.04221214	1.83340000
O	8.52968588	17.79868607	1.83340000
O	8.52968588	28.28573214	1.83340000
O	23.77717776	17.79868607	1.83340000
O	23.77717776	28.28573214	1.83340000
O	8.52968588	14.83053607	2.72118000
O	8.52968588	25.31758214	2.72118000
O	23.77717776	14.83053607	2.72118000
O	23.77717776	25.31758214	2.72118000
O	6.62374588	20.07405607	2.72118000
O	6.62374588	30.56110214	2.72118000
O	21.87123776	20.07405607	2.72118000
O	21.87123776	30.56110214	2.72118000
O	10.43561588	19.30006607	0.37332000
O	10.43561588	29.78711214	0.37332000
O	25.68310776	19.30006607	0.37332000
O	25.68310776	29.78711214	0.37332000
O	14.24749588	19.30006607	0.37332000
O	14.24749588	29.78711214	0.37332000
O	29.49498776	19.30006607	0.37332000
O	29.49498776	29.78711214	0.37332000
O	18.05936588	19.30006607	0.37332000
O	18.05936588	29.78711214	0.37332000
O	12.34155588	14.05653607	0.37332000
O	12.34155588	24.54358214	0.37332000
O	27.58904776	14.05653607	0.37332000
O	27.58904776	24.54358214	0.37332000
O	16.15343588	14.05653607	0.37332000
O	16.15343588	24.54358214	0.37332000
O	19.96530588	14.05653607	0.37332000
O	19.96530588	24.54358214	0.37332000
O	12.34155588	11.08838607	1.26110000
O	12.34155588	21.57543214	1.26110000
O	27.58904776	11.08838607	1.26110000
O	27.58904776	21.57543214	1.26110000
O	16.15343588	11.08838607	1.26110000
O	16.15343588	21.57543214	1.26110000
O	19.96530588	11.08838607	1.26110000
O	19.96530588	21.57543214	1.26110000
O	10.43561588	16.33190607	1.26111000
O	10.43561588	26.81895214	1.26111000
O	25.68310776	16.33190607	1.26111000
O	25.68310776	26.81895214	1.26111000
O	14.24749588	16.33190607	1.26111000
O	14.24749588	26.81895214	1.26111000
O	29.49498776	16.33190607	1.26111000
O	29.49498776	26.81895214	1.26111000
O	18.05936588	16.33190607	1.26111000
O	18.05936588	26.81895214	1.26111000
O	10.43561588	12.55516607	1.83340000
O	10.43561588	23.04221214	1.83340000
O	25.68310776	12.55516607	1.83340000
O	25.68310776	23.04221214	1.83340000
O	14.24749588	12.55516607	1.83340000
O	14.24749588	23.04221214	1.83340000
O	29.49498776	12.55516607	1.83340000
O	29.49498776	23.04221214	1.83340000
O	18.05936588	12.55516607	1.83340000
O	18.05936588	23.04221214	1.83340000
O	12.34155588	17.79868607	1.83340000
O	12.34155588	28.28573214	1.83340000
O	27.58904776	17.79868607	1.83340000
O	27.58904776	28.28573214	1.83340000
O	16.15343588	17.79868607	1.83340000
O	16.15343588	28.28573214	1.83340000
O	19.96530588	17.79868607	1.83340000
O	19.96530588	28.28573214	1.83340000
O	12.34155588	14.83053607	2.72118000
O	12.34155588	25.31758214	2.72118000
O	27.58904776	14.83053607	2.72118000
O	27.58904776	25.31758214	2.72118000
O	16.15343588	14.83053607	2.72118000
O	16.15343588	25.31758214	2.72118000
O	19.96530588	14.83053607	2.72118000
O	19.96530588	25.31758214	2.72118000
O	10.43561588	20.07405607	2.72118000
O	10.43561588	30.56110214	2.72118000
O	25.68310776	20.07405607	2.72118000
O	25.68310776	30.56110214	2.72118000
O	14.24749588	20.07405607	2.72118000
O	14.24749588	30.56110214	2.72118000
O	29.49498776	20.07405607	2.72118000
O	29.49498776	30.56110214	2.72118000
O	18.05936588	20.07405607	2.72118000
O	18.05936588	30.56110214	2.72118000
Ti	6.60846583	9.28390654	4.83375856
Ti	6.64854418	6.32083192	5.50797588
Ti	2.84163444	9.26784464	4.69329534
Ti	1.02746305	4.01536846	4.80789857
Ti	4.78026822	4.06046460	4.79152149
Ti	0.94169704	1.11129101	5.46292420
Ti	4.78674881	1.11962821	5.50129810
Ti	2.79605796	6.35656352	5.57371307
O	6.63251732	7.41960484	3.99959739
O	6.61507419	4.50783557	4.76574505
O	6.68112866	0.63559370	5.77131953
O	6.71518692	8.18572585	6.43464445
O	2.95963165	7.43728643	3.99317668
O	0.99774925	2.12554480	3.96641632
O	4.69335541	2.11293030	3.96145681
O	0.88447221	9.56318167	4.70741718
O	4.78637085	9.77255004	4.67095661
O	2.80836117	4.55714642	4.79154933
O	2.91074127	0.54871632	5.69639841
O	0.85228843	6.03209895	5.85271694
O	4.75980984	5.84895706	5.80470890
O	0.99866337	2.77540575	6.37703855
O	5.05348024	2.83207212	6.31744697
O	2.82391790	8.15234796	6.28155905
Ti	21.98503605	9.14911912	4.77158279
Ti	8.48153232	4.02523951	4.75462424
Ti	23.79417116	3.95069238	4.80818739
Ti	8.58053263	1.14232721	5.54690681
Ti	23.71316387	1.03216749	5.48280290
Ti	21.88539749	6.22120813	5.49552897
Ti	10.52037709	9.30422068	4.76173368
Ti	25.62896765	9.14600687	4.69908258
Ti	14.27467790	9.28846581	4.93367010
Ti	29.40072668	9.18827679	4.74010995
Ti	18.10828313	9.07936003	4.72463510
Ti	12.30312283	4.03528015	4.70634683
Ti	27.71229993	3.94061846	4.84850682
Ti	16.17825260	3.99692002	4.72268288
Ti	19.92616835	3.86353587	4.73086126
Ti	12.39098054	1.20859054	5.69666612
Ti	27.54736906	0.93526349	5.46266371
Ti	16.21901167	1.19968710	5.65527375
Ti	19.91541632	0.95443436	5.49313067
Ti	10.38690553	6.41490889	5.63009790
Ti	25.72153057	6.22204069	5.44914705
Ti	14.28873456	6.28839113	5.50461440
Ti	29.47227904	6.30990356	5.64842131
Ti	18.18096442	6.16403016	5.53043671
O	21.95325408	7.17951424	3.91733782
O	8.53956183	2.16120056	3.94295165
O	23.68340641	2.10673390	3.94698884
O	8.56382594	9.65340233	4.76853880
O	23.80551023	9.71185771	5.00517016
O	21.84035393	4.37278449	4.57940768
O	21.80052024	0.56109376	6.00798526
O	8.53551838	5.82351536	5.67167490
O	23.80325543	5.80941797	5.67204346
O	8.82198932	2.83469768	6.33638444
O	23.77889087	2.78453187	6.39616298
O	21.94597544	7.92835393	6.31596452
O	10.44308170	7.48220954	4.05432153
O	25.84849780	7.22697622	3.87585351
O	14.36480961	7.42737161	3.99064938
O	29.49669796	7.18292074	3.94605449
O	18.08015331	7.23387696	3.95381427
O	12.37346894	2.13737448	3.99962987
O	27.48524497	2.08214826	3.96618249
O	16.13458374	2.14883451	4.00298969
O	19.78952269	1.95361078	3.85615068
O	12.39772343	9.74952072	4.99239941
O	27.51914535	9.65242075	4.68474457
O	16.21384472	9.64073257	4.90230654
O	20.06525623	9.54869589	4.67022239
O	10.41224269	4.52784301	4.92241079
O	25.71119340	4.23161161	4.73660120
O	14.23018517	4.32082576	4.93516713
O	29.56813811	4.49962620	4.70653510
O	18.06727542	4.31293148	4.74265639
O	10.50681261	0.57874919	5.71466037
O	25.65310832	0.50739397	5.77712759
O	14.28748778	0.98434909	6.39042146
O	29.52392324	0.65138913	5.47301249
O	17.98969879	0.68273639	5.81195732
O	12.33117967	5.99738266	5.66070866
O	27.59839634	5.63037083	5.89163721
O	16.21043243	5.80263004	5.78101544
O	20.06391537	5.72121237	5.87463712
O	12.14633092	2.95123554	6.38039629
O	27.69165179	2.75965981	6.31677428
O	16.30044404	2.98144608	6.42190001
O	20.27890940	2.67659813	6.25574367
O	10.42911559	8.16708527	6.39074224
O	25.67663501	7.95795331	6.32295601
O	14.31527686	7.99882081	6.49914998
O	29.26632859	8.05426979	6.30252792
O	18.17556195	7.96596331	6.40603766
Ti	6.61977467	19.72067101	4.76130819
Ti	6.71590561	30.12626387	4.75860813
Ti	6.59291466	16.86491687	5.56546663
Ti	6.65108348	27.21243616	5.59238211
Ti	2.68578873	19.80894947	4.73933414
Ti	2.99044695	30.20605022	4.74669419
Ti	0.94693644	14.30232250	4.63509886
Ti	0.94584982	25.07399898	4.66917573
Ti	4.58713500	14.49903123	4.84240842
Ti	4.72399867	24.88578275	4.67402842
Ti	0.90604011	11.43948088	5.45802539
Ti	0.78877335	22.16676919	5.50870717
Ti	4.71033725	11.56284434	5.49297222
Ti	4.77211741	21.99481326	5.47076532
Ti	2.87785107	16.99476357	5.65835743
Ti	2.92917342	27.30315572	5.47338000
O	6.47196886	17.87617147	3.92999114
O	6.66525236	28.16200143	3.93611456
O	6.60263061	14.79598252	4.85575321
O	6.57289641	25.33161026	4.91768470
O	6.63077730	11.07913504	5.85393256
O	6.57879838	21.43819915	5.87960467
O	6.71819486	18.65129250	6.33043468
O	6.69515306	28.96543184	6.36702827
O	2.72611615	17.93838596	3.94760532
O	2.99777607	28.23258011	3.93348492
O	0.80224922	12.44337397	3.83891114
O	0.86649596	23.11718063	3.92016572
O	4.74259636	12.63682952	4.02983127
O	4.64172612	23.03769077	3.87690800
O	0.77234588	20.23541421	4.74417682
O	1.03951382	30.64576666	4.93165047
O	4.65001512	20.14322254	4.76359664
O	4.84561397	30.52553752	4.96922936
O	2.70767988	15.03774149	4.84786205
O	2.82465054	25.48795374	4.85974720
O	2.84489600	11.02146481	5.80478827
O	2.71067728	21.58185163	5.61263591
O	1.00682788	16.73899598	6.11117909
O	1.00065782	26.86768596	5.79479697
O	4.78534662	16.26989310	5.85348951
O	4.75092950	26.72876722	5.79634020
O	0.94024625	13.16205596	6.27697898
O	1.07359306	23.84647221	6.45136901
O	4.58330158	13.27456171	6.57033599
O	4.80140612	23.72675250	6.25769968
O	2.87332604	18.78193914	6.46073857
O	2.98192541	29.07454343	6.35388655
Ti	21.88969646	19.71084250	4.81462154
Ti	21.84322440	30.19402742	4.84279993
Ti	8.52478911	14.38702793	4.78372111
Ti	8.51550192	24.92501457	4.88446573
Ti	23.81045509	14.47659844	4.91785115
Ti	23.78199154	25.07487244	4.83985782
Ti	8.51247574	11.52800554	5.57475842
Ti	8.54492028	22.00081558	5.61924383
Ti	23.64421559	11.56401124	5.53802121
Ti	23.71620974	22.07176801	5.49344732
Ti	21.97095143	16.78661879	5.51624170
Ti	21.80186152	27.29988162	5.43641834
Ti	10.41868303	19.71265471	4.84765619
Ti	10.70849835	30.17273006	4.87077083
Ti	25.58460565	19.70561316	4.77857886
Ti	25.62200993	30.21345590	4.70914134
Ti	14.20073114	19.62222810	4.66702478
Ti	14.27145429	30.15861603	4.58042241
Ti	29.42817016	19.74927385	4.83726492
Ti	29.50084984	30.27563997	4.76184317
Ti	18.07937425	19.68558896	4.72546227
Ti	18.01605534	30.17661550	4.75769522
Ti	12.35919744	14.52888836	4.68096528
Ti	12.34696887	24.94595212	4.68444013
Ti	27.72332396	14.55048418	4.69089630
Ti	27.63119675	24.97247543	4.73176124
Ti	16.21042855	14.43409949	4.76679349
Ti	16.12902652	24.92645777	4.81179826
Ti	20.04777612	14.42206065	4.72797679
Ti	19.96900473	24.92257144	4.67094498
Ti	12.36802060	11.65181841	5.60022237
Ti	12.39140837	21.98949587	5.45325791
Ti	27.61895205	11.58103890	5.49847822
Ti	27.48027522	22.09706336	5.54092216
Ti	16.28649682	11.47855711	5.44784876
Ti	16.16898731	21.97425555	5.48520842
Ti	19.97483990	11.43808790	5.52360515
Ti	19.91681271	22.04419833	5.44033546
Ti	10.37011596	16.73143004	5.47507099
Ti	10.52254336	27.26815810	5.52680815
Ti	25.68967668	16.75716424	5.52741885
Ti	25.73605503	27.30181098	5.44738355
Ti	14.21624820	16.73745823	5.75228032
Ti	14.28276345	27.29625724	5.57560802
Ti	29.65585537	16.84135492	5.57452246
Ti	29.53556791	27.42664726	5.66173857
Ti	18.06327796	16.74883203	5.38099677
Ti	18.06983428	27.26805156	5.46542653
O	21.72682732	17.89289929	3.97836632
O	21.58570468	28.41394542	3.87700740
O	8.48574388	12.55121727	3.94630205
O	8.77706871	23.11823964	3.98263666
O	23.68727631	12.62946818	4.00746166
O	23.52439635	23.10653922	3.92482403
O	8.46041760	20.15649283	4.74800642
O	8.63692746	30.63423429	4.90189542
O	23.69250527	20.14250311	4.86791795
O	23.69740456	30.49835145	4.62953434
O	21.98842577	15.00287515	4.61706153
O	21.81318022	25.36327585	4.82114376
O	21.88706069	10.83051582	5.77842062
O	21.82821474	21.60471895	5.69535426
O	8.47926517	16.19026540	5.80875209
O	8.62196746	26.79681326	5.82087620
O	23.80339434	16.16654012	5.90849036
O	23.78430719	26.97065270	5.82744790
O	8.49646886	13.23558451	6.38976486
O	8.46584932	23.63024046	6.45177341
O	23.44498770	13.33966196	6.38508474
O	23.88205311	23.83663188	6.28377169
O	21.74518281	18.41467993	6.36984399
O	21.82059529	29.01360399	6.32045973
O	10.36890485	17.94793085	3.95644195
O	10.50662411	28.22214477	3.96887638
O	25.64989957	17.87521666	3.97428944
O	25.74244604	28.31281800	3.86681115
O	14.37411702	17.72487904	3.99951815
O	14.47089834	28.31739810	3.91776922
O	29.55922339	17.84032143	3.96254236
O	29.67861623	28.26818039	3.97624469
O	18.07733327	17.78187732	3.87503704
O	18.05431064	28.35603374	3.87763463
O	12.42634534	12.57954540	3.97191528
O	12.43175535	23.11325757	3.89213544
O	27.52320465	12.63743186	3.93211881
O	27.63044048	23.06811683	3.90356981
O	16.07679521	12.48893067	3.84996964
O	16.21708482	23.10500375	3.96524669
O	20.01396381	12.46357610	3.94176517
O	20.09815670	23.05411826	3.94573488
O	12.35370439	20.08510514	4.96425910
O	12.52772484	30.84255352	4.93587964
O	27.49610923	20.19923844	4.72219907
O	27.61170103	30.41891708	4.86941000
O	16.00041743	20.10982475	4.72156995
O	16.10997466	30.84900073	4.92632293
O	19.96905308	20.10457475	4.84714417
O	19.95162810	30.56233584	4.97323046
O	10.39854157	14.83796988	4.89453835
O	10.51523038	25.33862596	4.86788440
O	25.65391734	14.91121930	4.70954967
O	25.77197512	25.48245884	4.60343563
O	14.25412417	14.77467294	5.00515828
O	14.25645622	25.47036061	4.75543086
O	29.60208455	14.82556963	4.89670346
O	29.54056571	25.46873580	4.84885293
O	18.02286139	14.86656168	4.71391910
O	18.06871059	25.41447666	4.70488746
O	10.43718579	11.14995387	5.83208828
O	10.39798219	21.58068989	5.64222169
O	25.70360642	11.08298635	5.79754434
O	25.64343718	21.49132450	5.81123206
O	14.35830771	11.22232842	5.79604172
O	14.28583804	21.56370408	5.81075978
O	29.53703533	10.95153518	5.66664908
O	29.43415270	21.58872394	5.74686742
O	18.14234507	10.82691390	5.69989860
O	18.05342017	21.49219879	5.61636887
O	12.28623639	16.42017650	5.48351603
O	12.35618439	26.77671287	5.89284559
O	27.58286341	16.29220728	5.61356392
O	27.63554697	26.78536382	5.75067196
O	16.21362366	16.35239432	5.64804493
O	16.19230697	26.76807425	5.82165676
O	20.05228221	16.26408659	5.72854267
O	19.92490140	26.59710166	5.88755051
O	12.38214046	13.36471726	6.36211097
O	12.43638791	23.73784411	6.33892536
O	27.22799091	13.24455504	6.49604366
O	27.34765674	23.85587472	6.35377122
O	16.23384410	13.25787402	6.36877881
O	16.24242085	23.68268523	6.35097308
O	20.31677653	13.27615513	6.23882992
O	19.58224062	23.81135814	6.27153385
O	10.40149512	18.39574504	6.36817196
O	10.89154161	29.03355346	6.41376444
O	25.56660808	18.48889465	6.36937136
O	25.67076193	29.08665205	6.42241364
O	14.32055519	18.58792139	6.23877422
O	14.14292270	29.00696030	6.33669563
O	29.23191507	18.59017174	6.38819492
O	29.31230380	29.04791871	6.49394807
O	18.05546457	18.47410074	6.27094311
O	17.94338506	29.05011881	6.27844314
H	14.89727646	14.00879106	7.77419694
H	13.95105403	14.62712029	11.14479946
H	14.84115239	18.23299251	9.01714240
O	13.93087744	16.16076731	7.55112590
O	14.86239461	14.42864617	8.67288914
C	14.37042605	15.60515588	8.69999904
C	14.31182721	16.35049591	9.95791667
C	14.18181925	15.69112675	11.17078597
C	14.54973534	17.80316684	9.99419506
N	12.93554386	19.57100628	15.52717934
N	15.45540646	22.34008549	16.94980588
N	15.70291667	20.13329659	14.88900114
N	12.64481657	21.69340025	17.43112390
C	21.37368419	20.87505034	16.36842854
C	14.40695809	25.26232237	21.80401900
C	7.14210714	19.90402181	16.35254433
C	19.06512668	21.56940839	16.01462936
C	13.90208438	24.64460285	19.47478729
C	9.44656109	19.83713627	17.07261216
C	20.88555294	22.84228234	15.08378339
C	13.51996330	26.89001365	20.28645804
C	7.68679253	18.71861847	18.30673603
C	14.32602789	18.61532789	13.61510754
C	17.56257470	21.35925053	16.01873055
C	13.93262595	23.63748885	18.33888940
C	10.84861453	20.13114284	16.80263062
C	15.53655057	19.27704023	13.85915577
C	17.03291040	20.43894019	15.07028212
C	12.78942187	22.84879774	18.16561112
C	11.35723351	21.28336096	17.42851217
C	16.80685150	18.81568451	13.42802873
C	17.75252963	19.59588298	14.14949429
C	11.50034159	23.13033606	18.72680589
C	10.58776629	22.13655340	18.30378369
C	13.21944023	18.64465306	14.51689125
C	16.84425076	22.22008268	16.87061994
C	15.16455265	23.38592035	17.77451138
C	11.66388915	19.25732732	16.05496785
C	12.07691535	17.76275742	14.36688428
C	17.46757258	23.17245744	17.71924347
C	16.45564326	24.00118760	18.19299161
C	11.18092547	18.12280282	15.34513322
H	12.00793790	16.93796971	13.64874715
H	18.50796236	23.23525955	18.06846987
H	16.43695492	24.81476103	18.92400393
H	10.18842864	17.62957934	15.50843496
H	17.17071512	18.08631470	12.69802721
H	18.83843932	19.57871921	14.04437093
H	11.15971660	23.81992186	19.51817976
H	9.55013486	21.98381551	18.51484658
H	21.30665828	23.72326289	14.48648206
H	13.17195128	27.96631202	20.07935790
H	7.40546757	18.06268480	19.19276283
H	22.01666953	20.22170937	16.99244116
H	14.80632431	24.91051812	22.83969570
H	6.43604568	20.18883216	15.53828365
H	15.02310009	20.52036021	15.57401236
H	13.37372118	21.20407451	16.92334782
C	23.26571934	22.18577244	15.35586813
H	23.65274362	21.36631185	14.72071771
H	23.93341155	22.30506338	16.21377711
H	23.41450843	23.11627615	14.76121224
C	19.46545149	19.62530716	17.47335640
H	18.38974756	19.65502978	17.63268158
H	19.95490197	19.80501171	18.43392054
H	19.80282002	18.63123877	17.06136135
C	18.55850769	23.73745347	14.75526230
H	18.77407100	24.04596431	13.68415026
H	18.57578929	24.64975153	15.37350734
H	17.51334138	23.43072414	14.63950973
C	9.97983846	18.62585096	19.31719012
H	10.54973140	17.72662114	19.00032590
H	9.42030053	18.34059429	20.18356510
H	10.74643284	19.40765796	19.54496120
C	8.99322066	21.25469720	15.11524613
H	9.89041864	21.85638418	15.43483925
H	8.25755121	21.99086476	14.75597179
H	9.16938314	20.70795458	14.16224745
C	5.33328247	18.31203452	17.15794148
H	5.41019152	17.65825105	16.29733312
H	4.61892465	19.13683103	16.99011584
H	5.14744689	17.71085109	17.98034504
C	12.85433614	26.40951335	17.93382196
H	12.22165588	25.58138724	17.48671380
H	13.68798160	26.51856835	17.18123516
H	12.25996612	27.29796135	17.82376005
C	14.79907711	22.95856109	21.05559098
H	14.22886391	22.64215777	21.95847403
H	15.81416367	22.97132560	21.46591472
H	14.76777626	22.21434825	20.29780085
C	14.39411204	27.69047110	22.50737169
H	14.36665561	27.27778740	23.53854607
H	13.69020720	28.54841507	22.34108338
H	15.40924668	28.11055458	22.26556268
C	21.85946104	21.96211604	15.64639425
C	19.97996660	20.71161397	16.58254295
C	19.48559281	22.69605701	15.22357945
C	13.42306755	25.94766524	19.29281297
C	14.37382720	24.30820832	20.73932684
C	14.06490088	26.58071698	21.58174576
C	9.02963177	19.09845691	18.20122219
C	8.48915241	20.33993017	16.20846777
C	6.72570154	18.95403134	17.24241709
H	13.96900074	15.93754083	13.37629537
H	14.80128281	19.62932667	11.28032002
C	14.28418594	17.73654847	12.34686987
C	14.09916387	16.38216991	12.36917529
C	14.56527537	18.52442274	11.18516557

Ti O H C N 0
6-31G*
****

