%chk=f00018830.chk
%mem=24GB
%nproc=12
#p b3lyp/6-31G*

title

0 1
Ti	2.81187400	0.19704000	1.10336000
Ti	0.90594400	5.44057000	1.10336000
Ti	4.71781400	5.44057000	1.10336000
Ti	0.90594400	2.47241000	1.99114000
Ti	4.71781400	2.47241000	1.99114000
Ti	2.81187400	7.71594000	1.99115000
O	2.81187400	8.81302000	0.37332000
O	0.90594400	3.56949000	0.37332000
O	4.71781400	3.56949000	0.37332000
O	0.90594400	0.60134000	1.26110000
O	4.71781400	0.60134000	1.26110000
O	2.81187400	5.84486000	1.26111000
O	2.81187400	2.06812000	1.83340000
O	0.90594400	7.31164000	1.83340000
O	4.71781400	7.31164000	1.83340000
O	0.90594400	4.34349000	2.72118000
O	4.71781400	4.34349000	2.72118000
O	2.81187400	9.58701000	2.72118000
Ti	6.62374588	0.19704000	1.10336000
Ti	21.87123776	0.19704000	1.10336000
Ti	8.52968588	5.44057000	1.10336000
Ti	23.77717776	5.44057000	1.10336000
Ti	8.52968588	2.47241000	1.99114000
Ti	23.77717776	2.47241000	1.99114000
Ti	6.62374588	7.71594000	1.99115000
Ti	21.87123776	7.71594000	1.99115000
Ti	10.43561588	0.19704000	1.10336000
Ti	25.68310776	0.19704000	1.10336000
Ti	14.24749588	0.19704000	1.10336000
Ti	29.49498776	0.19704000	1.10336000
Ti	18.05936588	0.19704000	1.10336000
Ti	12.34155588	5.44057000	1.10336000
Ti	27.58904776	5.44057000	1.10336000
Ti	16.15343588	5.44057000	1.10336000
Ti	19.96530588	5.44057000	1.10336000
Ti	12.34155588	2.47241000	1.99114000
Ti	27.58904776	2.47241000	1.99114000
Ti	16.15343588	2.47241000	1.99114000
Ti	19.96530588	2.47241000	1.99114000
Ti	10.43561588	7.71594000	1.99115000
Ti	25.68310776	7.71594000	1.99115000
Ti	14.24749588	7.71594000	1.99115000
Ti	29.49498776	7.71594000	1.99115000
Ti	18.05936588	7.71594000	1.99115000
O	6.62374588	8.81302000	0.37332000
O	21.87123776	8.81302000	0.37332000
O	8.52968588	3.56949000	0.37332000
O	23.77717776	3.56949000	0.37332000
O	8.52968588	0.60134000	1.26110000
O	23.77717776	0.60134000	1.26110000
O	6.62374588	5.84486000	1.26111000
O	21.87123776	5.84486000	1.26111000
O	6.62374588	2.06812000	1.83340000
O	21.87123776	2.06812000	1.83340000
O	8.52968588	7.31164000	1.83340000
O	23.77717776	7.31164000	1.83340000
O	8.52968588	4.34349000	2.72118000
O	23.77717776	4.34349000	2.72118000
O	6.62374588	9.58701000	2.72118000
O	21.87123776	9.58701000	2.72118000
O	10.43561588	8.81302000	0.37332000
O	25.68310776	8.81302000	0.37332000
O	14.24749588	8.81302000	0.37332000
O	29.49498776	8.81302000	0.37332000
O	18.05936588	8.81302000	0.37332000
O	12.34155588	3.56949000	0.37332000
O	27.58904776	3.56949000	0.37332000
O	16.15343588	3.56949000	0.37332000
O	19.96530588	3.56949000	0.37332000
O	12.34155588	0.60134000	1.26110000
O	27.58904776	0.60134000	1.26110000
O	16.15343588	0.60134000	1.26110000
O	19.96530588	0.60134000	1.26110000
O	10.43561588	5.84486000	1.26111000
O	25.68310776	5.84486000	1.26111000
O	14.24749588	5.84486000	1.26111000
O	29.49498776	5.84486000	1.26111000
O	18.05936588	5.84486000	1.26111000
O	10.43561588	2.06812000	1.83340000
O	25.68310776	2.06812000	1.83340000
O	14.24749588	2.06812000	1.83340000
O	29.49498776	2.06812000	1.83340000
O	18.05936588	2.06812000	1.83340000
O	12.34155588	7.31164000	1.83340000
O	27.58904776	7.31164000	1.83340000
O	16.15343588	7.31164000	1.83340000
O	19.96530588	7.31164000	1.83340000
O	12.34155588	4.34349000	2.72118000
O	27.58904776	4.34349000	2.72118000
O	16.15343588	4.34349000	2.72118000
O	19.96530588	4.34349000	2.72118000
O	10.43561588	9.58701000	2.72118000
O	25.68310776	9.58701000	2.72118000
O	14.24749588	9.58701000	2.72118000
O	29.49498776	9.58701000	2.72118000
O	18.05936588	9.58701000	2.72118000
Ti	2.81187400	10.68408607	1.10336000
Ti	2.81187400	21.17113214	1.10336000
Ti	0.90594400	15.92761607	1.10336000
Ti	0.90594400	26.41466214	1.10336000
Ti	4.71781400	15.92761607	1.10336000
Ti	4.71781400	26.41466214	1.10336000
Ti	0.90594400	12.95945607	1.99114000
Ti	0.90594400	23.44650214	1.99114000
Ti	4.71781400	12.95945607	1.99114000
Ti	4.71781400	23.44650214	1.99114000
Ti	2.81187400	18.20298607	1.99115000
Ti	2.81187400	28.69003214	1.99115000
O	2.81187400	19.30006607	0.37332000
O	2.81187400	29.78711214	0.37332000
O	0.90594400	14.05653607	0.37332000
O	0.90594400	24.54358214	0.37332000
O	4.71781400	14.05653607	0.37332000
O	4.71781400	24.54358214	0.37332000
O	0.90594400	11.08838607	1.26110000
O	0.90594400	21.57543214	1.26110000
O	4.71781400	11.08838607	1.26110000
O	4.71781400	21.57543214	1.26110000
O	2.81187400	16.33190607	1.26111000
O	2.81187400	26.81895214	1.26111000
O	2.81187400	12.55516607	1.83340000
O	2.81187400	23.04221214	1.83340000
O	0.90594400	17.79868607	1.83340000
O	0.90594400	28.28573214	1.83340000
O	4.71781400	17.79868607	1.83340000
O	4.71781400	28.28573214	1.83340000
O	0.90594400	14.83053607	2.72118000
O	0.90594400	25.31758214	2.72118000
O	4.71781400	14.83053607	2.72118000
O	4.71781400	25.31758214	2.72118000
O	2.81187400	20.07405607	2.72118000
O	2.81187400	30.56110214	2.72118000
Ti	6.62374588	10.68408607	1.10336000
Ti	6.62374588	21.17113214	1.10336000
Ti	21.87123776	10.68408607	1.10336000
Ti	21.87123776	21.17113214	1.10336000
Ti	8.52968588	15.92761607	1.10336000
Ti	8.52968588	26.41466214	1.10336000
Ti	23.77717776	15.92761607	1.10336000
Ti	23.77717776	26.41466214	1.10336000
Ti	8.52968588	12.95945607	1.99114000
Ti	8.52968588	23.44650214	1.99114000
Ti	23.77717776	12.95945607	1.99114000
Ti	23.77717776	23.44650214	1.99114000
Ti	6.62374588	18.20298607	1.99115000
Ti	6.62374588	28.69003214	1.99115000
Ti	21.87123776	18.20298607	1.99115000
Ti	21.87123776	28.69003214	1.99115000
Ti	10.43561588	10.68408607	1.10336000
Ti	10.43561588	21.17113214	1.10336000
Ti	25.68310776	10.68408607	1.10336000
Ti	25.68310776	21.17113214	1.10336000
Ti	14.24749588	10.68408607	1.10336000
Ti	14.24749588	21.17113214	1.10336000
Ti	29.49498776	10.68408607	1.10336000
Ti	29.49498776	21.17113214	1.10336000
Ti	18.05936588	10.68408607	1.10336000
Ti	18.05936588	21.17113214	1.10336000
Ti	12.34155588	15.92761607	1.10336000
Ti	12.34155588	26.41466214	1.10336000
Ti	27.58904776	15.92761607	1.10336000
Ti	27.58904776	26.41466214	1.10336000
Ti	16.15343588	15.92761607	1.10336000
Ti	16.15343588	26.41466214	1.10336000
Ti	19.96530588	15.92761607	1.10336000
Ti	19.96530588	26.41466214	1.10336000
Ti	12.34155588	12.95945607	1.99114000
Ti	12.34155588	23.44650214	1.99114000
Ti	27.58904776	12.95945607	1.99114000
Ti	27.58904776	23.44650214	1.99114000
Ti	16.15343588	12.95945607	1.99114000
Ti	16.15343588	23.44650214	1.99114000
Ti	19.96530588	12.95945607	1.99114000
Ti	19.96530588	23.44650214	1.99114000
Ti	10.43561588	18.20298607	1.99115000
Ti	10.43561588	28.69003214	1.99115000
Ti	25.68310776	18.20298607	1.99115000
Ti	25.68310776	28.69003214	1.99115000
Ti	14.24749588	18.20298607	1.99115000
Ti	14.24749588	28.69003214	1.99115000
Ti	29.49498776	18.20298607	1.99115000
Ti	29.49498776	28.69003214	1.99115000
Ti	18.05936588	18.20298607	1.99115000
Ti	18.05936588	28.69003214	1.99115000
O	6.62374588	19.30006607	0.37332000
O	6.62374588	29.78711214	0.37332000
O	21.87123776	19.30006607	0.37332000
O	21.87123776	29.78711214	0.37332000
O	8.52968588	14.05653607	0.37332000
O	8.52968588	24.54358214	0.37332000
O	23.77717776	14.05653607	0.37332000
O	23.77717776	24.54358214	0.37332000
O	8.52968588	11.08838607	1.26110000
O	8.52968588	21.57543214	1.26110000
O	23.77717776	11.08838607	1.26110000
O	23.77717776	21.57543214	1.26110000
O	6.62374588	16.33190607	1.26111000
O	6.62374588	26.81895214	1.26111000
O	21.87123776	16.33190607	1.26111000
O	21.87123776	26.81895214	1.26111000
O	6.62374588	12.55516607	1.83340000
O	6.62374588	23.04221214	1.83340000
O	21.87123776	12.55516607	1.83340000
O	21.87123776	23.04221214	1.83340000
O	8.52968588	17.79868607	1.83340000
O	8.52968588	28.28573214	1.83340000
O	23.77717776	17.79868607	1.83340000
O	23.77717776	28.28573214	1.83340000
O	8.52968588	14.83053607	2.72118000
O	8.52968588	25.31758214	2.72118000
O	23.77717776	14.83053607	2.72118000
O	23.77717776	25.31758214	2.72118000
O	6.62374588	20.07405607	2.72118000
O	6.62374588	30.56110214	2.72118000
O	21.87123776	20.07405607	2.72118000
O	21.87123776	30.56110214	2.72118000
O	10.43561588	19.30006607	0.37332000
O	10.43561588	29.78711214	0.37332000
O	25.68310776	19.30006607	0.37332000
O	25.68310776	29.78711214	0.37332000
O	14.24749588	19.30006607	0.37332000
O	14.24749588	29.78711214	0.37332000
O	29.49498776	19.30006607	0.37332000
O	29.49498776	29.78711214	0.37332000
O	18.05936588	19.30006607	0.37332000
O	18.05936588	29.78711214	0.37332000
O	12.34155588	14.05653607	0.37332000
O	12.34155588	24.54358214	0.37332000
O	27.58904776	14.05653607	0.37332000
O	27.58904776	24.54358214	0.37332000
O	16.15343588	14.05653607	0.37332000
O	16.15343588	24.54358214	0.37332000
O	19.96530588	14.05653607	0.37332000
O	19.96530588	24.54358214	0.37332000
O	12.34155588	11.08838607	1.26110000
O	12.34155588	21.57543214	1.26110000
O	27.58904776	11.08838607	1.26110000
O	27.58904776	21.57543214	1.26110000
O	16.15343588	11.08838607	1.26110000
O	16.15343588	21.57543214	1.26110000
O	19.96530588	11.08838607	1.26110000
O	19.96530588	21.57543214	1.26110000
O	10.43561588	16.33190607	1.26111000
O	10.43561588	26.81895214	1.26111000
O	25.68310776	16.33190607	1.26111000
O	25.68310776	26.81895214	1.26111000
O	14.24749588	16.33190607	1.26111000
O	14.24749588	26.81895214	1.26111000
O	29.49498776	16.33190607	1.26111000
O	29.49498776	26.81895214	1.26111000
O	18.05936588	16.33190607	1.26111000
O	18.05936588	26.81895214	1.26111000
O	10.43561588	12.55516607	1.83340000
O	10.43561588	23.04221214	1.83340000
O	25.68310776	12.55516607	1.83340000
O	25.68310776	23.04221214	1.83340000
O	14.24749588	12.55516607	1.83340000
O	14.24749588	23.04221214	1.83340000
O	29.49498776	12.55516607	1.83340000
O	29.49498776	23.04221214	1.83340000
O	18.05936588	12.55516607	1.83340000
O	18.05936588	23.04221214	1.83340000
O	12.34155588	17.79868607	1.83340000
O	12.34155588	28.28573214	1.83340000
O	27.58904776	17.79868607	1.83340000
O	27.58904776	28.28573214	1.83340000
O	16.15343588	17.79868607	1.83340000
O	16.15343588	28.28573214	1.83340000
O	19.96530588	17.79868607	1.83340000
O	19.96530588	28.28573214	1.83340000
O	12.34155588	14.83053607	2.72118000
O	12.34155588	25.31758214	2.72118000
O	27.58904776	14.83053607	2.72118000
O	27.58904776	25.31758214	2.72118000
O	16.15343588	14.83053607	2.72118000
O	16.15343588	25.31758214	2.72118000
O	19.96530588	14.83053607	2.72118000
O	19.96530588	25.31758214	2.72118000
O	10.43561588	20.07405607	2.72118000
O	10.43561588	30.56110214	2.72118000
O	25.68310776	20.07405607	2.72118000
O	25.68310776	30.56110214	2.72118000
O	14.24749588	20.07405607	2.72118000
O	14.24749588	30.56110214	2.72118000
O	29.49498776	20.07405607	2.72118000
O	29.49498776	30.56110214	2.72118000
O	18.05936588	20.07405607	2.72118000
O	18.05936588	30.56110214	2.72118000
Ti	6.62510080	9.14375027	4.74699173
Ti	6.59387919	6.25494102	5.50642300
Ti	2.81245015	9.17430212	4.77083917
Ti	0.89800381	3.88485885	4.83594038
Ti	4.74300396	3.97539767	4.84500101
Ti	0.81581676	1.04159621	5.47966088
Ti	4.73969136	1.02271211	5.47757522
Ti	2.85662627	6.29317742	5.60308495
O	6.78177893	7.26417203	3.91884993
O	6.61453304	4.34991804	4.71858122
O	6.66385984	0.51251228	5.74044667
O	6.60666539	8.02069717	6.40456598
O	2.74847206	7.14842915	4.02644176
O	0.97225957	2.01986141	3.88302946
O	4.73160178	2.16756441	3.98221294
O	0.93987077	9.47795055	4.79580712
O	4.69555126	9.56179550	4.73793141
O	2.74819753	4.40975142	4.90413920
O	2.85059677	0.55310373	5.76965240
O	0.86400555	5.90758744	5.76288378
O	4.73903309	5.77946063	5.77393142
O	0.82130439	2.74542146	6.49138007
O	4.82792660	2.79595369	6.37506526
O	2.93462931	8.10409934	6.44925638
Ti	21.77933468	9.29601273	4.77550447
Ti	8.45061011	3.84580603	4.72833055
Ti	23.87810195	3.98296307	4.58208242
Ti	8.55490203	0.94278748	5.46570276
Ti	23.71733381	0.97746796	5.43233470
Ti	21.96725987	6.38770893	5.52110456
Ti	10.36467844	9.24349654	4.81064976
Ti	25.57299475	9.13617857	4.76513211
Ti	14.20470200	9.24977836	4.71521077
Ti	29.38330365	9.13725610	4.79038788
Ti	17.97512207	9.23232415	4.70808417
Ti	12.28150312	4.05275538	4.73522476
Ti	27.51167910	3.96224727	4.71910374
Ti	16.22591726	3.97690584	4.73713843
Ti	19.98401103	3.98248854	4.68695200
Ti	12.31416239	1.16487560	5.49529736
Ti	27.51681692	1.04216593	5.42040330
Ti	16.08432334	1.08025035	5.58407870
Ti	19.96350559	1.11592580	5.53201022
Ti	10.43134651	6.33459355	5.44462657
Ti	25.73671656	6.24703904	5.51399566
Ti	14.19809519	6.33596952	5.41527345
Ti	29.49657809	6.24860200	5.53510849
Ti	18.19779967	6.36359942	5.47656151
O	21.81422000	7.43469031	3.91530930
O	8.71644513	2.06348756	3.91490429
O	23.83786033	2.07545256	3.91147347
O	8.51922549	9.66934150	4.78218577
O	23.73925777	9.63472118	4.66057840
O	21.93622781	4.40743759	4.73349209
O	21.80668328	0.43283091	5.83961305
O	8.50988311	5.74945327	5.84031982
O	23.86390450	5.87076046	5.54863982
O	8.37297966	2.68370670	6.32314677
O	23.85031631	2.79416389	6.24727467
O	22.05182633	8.10848732	6.38330390
O	10.55855552	7.40720784	3.93173670
O	25.67229139	7.32809926	3.95995052
O	14.25107124	7.28764424	3.86820676
O	29.37540060	7.32693278	3.92507820
O	18.13084312	7.38695414	3.95302691
O	12.52569871	2.20551937	3.90749548
O	27.36178974	2.04752362	3.95520286
O	16.07937746	2.15683021	3.98179809
O	19.84181779	2.01439335	3.93766180
O	12.35027099	9.76968748	4.71225914
O	27.51163126	9.69108207	4.74767822
O	16.17588065	9.76587676	4.76852958
O	19.94192117	9.61339824	4.61388409
O	10.39539392	4.42870723	4.66354493
O	25.66960438	4.40934893	4.70010954
O	14.29382484	4.43145889	4.78679147
O	29.49119814	4.32240316	4.79191251
O	18.11839856	4.55346485	4.79672557
O	10.42919229	0.54626253	5.68101366
O	25.60430795	0.53964540	5.78755025
O	14.19395786	0.94545915	6.03011574
O	29.42725189	0.57341978	5.69808105
O	18.02951170	0.63911863	5.77267329
O	12.37868303	5.94193560	5.70109303
O	27.56994953	5.72429773	5.79406941
O	16.23272400	5.83594839	5.67881359
O	20.06144593	5.85989272	5.86758342
O	11.98292881	2.94806394	6.29724794
O	27.46339521	2.69759756	6.41878900
O	16.30047468	2.82882904	6.36797107
O	20.11238477	2.87199478	6.38190703
O	10.35138441	8.03682049	6.46612049
O	25.62611328	8.05064131	6.39934754
O	14.19276213	8.06393163	6.25137033
O	29.46734136	7.94417621	6.35524464
O	18.02233333	8.12519238	6.37830994
Ti	6.76039909	19.65140826	4.70953706
Ti	6.66203741	30.14587492	4.76669735
Ti	6.62543091	16.75081114	5.57618101
Ti	6.57031840	27.20735886	5.37512230
Ti	2.83981974	19.75147893	4.71578326
Ti	2.83856210	30.22481038	4.85439747
Ti	1.01787190	14.25427111	4.66152613
Ti	0.93887562	25.00255816	4.74916544
Ti	4.64096438	14.47186113	4.88479259
Ti	4.62646544	24.99224175	4.83490565
Ti	0.86391955	11.44276550	5.38809142
Ti	0.90122356	22.05021300	5.62850525
Ti	4.66704466	11.53362722	5.58546165
Ti	4.76123578	22.02756806	5.52661687
Ti	2.90141741	16.88498041	5.60772315
Ti	2.83159738	27.29756832	5.53639008
O	6.84857962	17.82282320	4.00615959
O	6.80852375	28.25792687	3.86943334
O	6.54802936	14.91570118	4.75208228
O	6.55986404	25.28934506	4.62841412
O	6.57981615	11.01322913	5.79762187
O	6.67943648	21.43684013	5.70319245
O	6.85792390	18.49942626	6.38173245
O	6.43376527	28.91623791	6.22203126
O	3.01750705	17.90630442	3.91920536
O	2.82358624	28.30410271	3.84460717
O	0.86520129	12.50965270	3.87096312
O	0.90548921	23.11306652	3.95726902
O	4.92442766	12.63849735	4.09101012
O	4.75291717	23.09079045	3.98942064
O	0.96900929	20.19781678	4.88890621
O	0.90143666	30.62769316	4.62735812
O	4.78888695	20.06627735	4.96416476
O	4.73821496	30.62028503	4.71687881
O	2.74043845	15.07218213	4.67312531
O	2.79083321	25.44295950	4.71799507
O	2.77091233	10.88136823	5.78987196
O	2.86397339	21.60617752	5.62158798
O	1.08951651	16.55905546	6.15819680
O	0.87151822	26.77547660	5.68598368
O	4.75166722	16.28006094	5.92364276
O	4.67938594	26.63346663	5.88417094
O	1.06361777	13.16210663	6.29939958
O	0.96297631	23.86052551	6.28004809
O	4.34185923	13.32373192	6.43558259
O	4.57504887	23.79560328	6.41983511
O	2.93247304	18.70099093	6.37224915
O	2.94100921	29.07266382	6.32568575
Ti	21.97119874	19.83917679	4.70864562
Ti	21.70639157	30.08737214	4.74100692
Ti	8.46554713	14.44455960	4.82040616
Ti	8.51058436	24.92687376	4.66427831
Ti	23.88124421	14.47297799	4.72340542
Ti	23.77133360	25.02058754	4.72801310
Ti	8.43405855	11.55948829	5.57004559
Ti	8.51604792	21.87587420	5.47382348
Ti	23.85682005	11.48081209	5.43326163
Ti	23.82207222	22.15066911	5.55086257
Ti	21.94463639	16.90462376	5.54123010
Ti	21.84466712	27.18385062	5.46554978
Ti	10.51850386	19.63792743	4.67918584
Ti	10.51728733	30.21532285	4.72537741
Ti	25.74616997	19.75185406	4.72339318
Ti	25.62034723	30.18328534	4.75487269
Ti	14.34361540	19.70524761	4.82074816
Ti	14.26804128	30.10991400	4.59731215
Ti	29.51178083	19.68921943	4.77654402
Ti	29.47272945	30.15842314	4.68659977
Ti	18.20390974	19.70016865	4.71426434
Ti	18.05092835	30.31163531	4.79650541
Ti	12.27430933	14.57882713	4.79659967
Ti	12.37637736	24.99025393	4.72603946
Ti	27.75869615	14.62357166	4.88050661
Ti	27.62633915	24.91834563	4.87143972
Ti	16.14301549	14.48157102	4.73663015
Ti	16.14817338	24.98581481	4.74948445
Ti	20.04186008	14.44495638	4.86326884
Ti	19.91389263	24.92495345	4.74639906
Ti	12.26992046	11.65740913	5.65886081
Ti	12.45651442	22.08305910	5.53333294
Ti	27.60067862	11.61115571	5.52555088
Ti	27.61212579	22.00114118	5.51051520
Ti	16.15975214	11.56836827	5.56282072
Ti	16.19743169	22.08591076	5.36932946
Ti	20.01462601	11.58432088	5.50357206
Ti	19.96850140	22.03370491	5.54427995
Ti	10.26676352	16.79073052	5.45800547
Ti	10.41809778	27.18736527	5.38002862
Ti	25.77745014	16.89326049	5.54565314
Ti	25.70560290	27.30400760	5.52270825
Ti	14.31305749	16.68565340	5.76518838
Ti	14.19331942	27.19721837	5.53740589
Ti	29.73933116	16.84326659	5.52155418
Ti	29.51222650	27.21652118	5.49600077
Ti	18.04168448	16.81452129	5.59778408
Ti	17.95668298	27.40726952	5.50114691
O	21.89598238	17.87505659	3.98255569
O	21.66271693	28.16908609	3.84006304
O	8.62860974	12.58179586	3.96479239
O	8.59788198	22.95555707	3.94578055
O	23.64430063	12.52972242	3.85669946
O	23.73119224	23.00796104	3.86816174
O	8.61496231	20.09972943	4.57325234
O	8.53712534	30.46181740	4.75850463
O	23.91067789	20.20356094	4.76831185
O	23.64233946	30.63577918	4.74867331
O	21.94274930	14.96457411	4.94061552
O	21.84733228	25.25813376	5.10744407
O	21.94684624	11.05246489	5.81436638
O	21.93832424	21.58414181	5.82167586
O	8.45189825	16.15977842	5.88610867
O	8.47694596	26.61151828	5.66301341
O	23.87386383	16.31330472	5.77644192
O	23.73438008	26.73134055	5.75289690
O	8.28141757	13.26307980	6.39519406
O	8.54530837	23.81653107	6.34581478
O	23.67010174	13.27632600	6.29683852
O	23.90197871	23.91266044	6.38230842
O	21.75259595	18.73230354	6.34889401
O	21.75039241	28.94742797	6.28682940
O	10.39628599	17.72795604	3.90037365
O	10.32977996	28.22421066	3.84680385
O	25.60389824	17.87597399	3.96139242
O	25.77852173	28.30767615	3.95610150
O	14.36606271	17.85535318	4.00444478
O	14.14424345	28.33948372	4.00167900
O	29.50466341	17.87058140	3.92680651
O	29.53077450	28.26908941	3.89496297
O	18.18050176	17.81147589	3.99246099
O	18.12204329	28.41853064	3.88725302
O	12.22958593	12.65419556	4.04472889
O	12.38837599	23.08344318	3.93094886
O	27.49934401	12.62497299	3.88023670
O	27.68184025	23.14097629	3.95874390
O	15.96254809	12.57133769	3.93969007
O	16.09932538	23.08369768	3.87795106
O	19.91683667	12.56990090	3.90161015
O	19.99914696	23.04137376	3.91463094
O	12.36140318	20.22143356	4.80356693
O	12.44050038	30.84093160	4.80756181
O	27.67437264	20.17359706	4.49080028
O	27.50864336	30.51696260	4.76863637
O	16.19938737	20.16880793	4.71233496
O	16.09610198	30.71205889	4.68816796
O	20.08632921	20.23607199	4.69034887
O	19.87886262	30.60850744	4.74170184
O	10.35326442	14.85446882	4.63150392
O	10.48985875	25.30272425	4.84968374
O	25.76853518	14.92679278	4.75049442
O	25.69901678	25.38378507	4.73859352
O	14.23352632	14.89031850	5.09955286
O	14.28983596	25.35095124	4.70843069
O	29.72631813	14.86112597	4.89818061
O	29.50288825	25.35919090	4.69779101
O	18.01633868	14.94778467	4.85839117
O	18.06721967	25.44938460	4.81766008
O	10.38278736	11.04493200	5.94435232
O	10.50134218	21.46337570	5.78835102
O	25.76506927	11.02680985	5.73058055
O	25.77688365	21.51266693	5.82872437
O	14.29918036	11.14136937	5.75025861
O	14.31511058	21.58575279	5.80071866
O	29.47363565	11.01066349	5.83311377
O	29.51769601	21.47805706	5.82342293
O	18.08782314	11.09491817	5.74763210
O	18.09963163	21.63585706	5.61811256
O	12.31770293	16.49478618	5.67324428
O	12.32543372	26.72407869	5.71805601
O	27.74496058	16.38854448	5.66727730
O	27.60243855	26.75274790	5.72785124
O	16.18953411	16.31124797	5.72135093
O	16.13329133	26.68793203	5.83617973
O	19.94689485	16.24960390	5.77718479
O	19.90376853	26.77107480	5.85400510
O	12.23020377	13.37384925	6.42410973
O	12.57048315	23.82303928	6.40083844
O	27.55443036	13.36705315	6.34161016
O	27.61948723	23.79244406	6.39284088
O	16.24276126	13.31452234	6.44536224
O	16.35317810	23.76300614	6.29046735
O	20.14024891	13.21835018	6.41863998
O	19.97563146	23.79708877	6.46554067
O	10.45600545	18.50987480	6.30044760
O	10.68873949	29.03953563	6.26763773
O	25.80808419	18.66849677	6.41382920
O	25.55011952	29.06968213	6.40225472
O	14.50310702	18.65343782	6.36509983
O	14.35307806	28.97276375	6.36438383
O	29.52612275	18.60113942	6.41132011
O	29.38315857	28.96334311	6.24543293
O	18.38691484	18.62044901	6.41191810
O	17.88425451	29.09377451	6.37864296
H	14.77568998	13.99293511	7.78324006
H	14.04798483	14.62289407	11.44542891
H	14.60080953	18.06145643	8.96179450
O	14.15881320	16.16148467	7.70475803
O	14.68581591	14.30239972	8.71616800
C	14.38751072	15.55672719	8.81700913
C	14.37095626	16.28040863	10.04183510
C	14.27746769	15.70070940	11.35544172
C	14.50660417	17.65023011	9.99291508
N	12.86191518	19.72104606	15.36004273
N	15.57196055	22.21138055	17.17758623
N	15.74733147	20.41303544	14.87526629
N	12.76155349	21.58772528	17.69089061
C	21.26321192	21.56804337	17.01733544
C	14.43152658	25.46288792	22.11077751
C	7.12742612	19.88540238	16.60980581
C	19.10185728	21.92412907	15.92272894
C	14.08051406	24.31834968	19.95761670
C	9.52074008	19.73225698	17.04821807
C	21.04424939	23.08328728	15.11764732
C	13.54335434	26.63676035	20.23088201
C	7.99467893	18.35240938	18.30588297
C	14.37649450	18.75729165	13.62560959
C	17.65293999	21.61099850	15.93638781
C	14.16385760	23.16918803	19.01804494
C	10.89691355	20.14883080	16.83730587
C	15.57169428	19.42821108	13.91138275
C	17.06594843	20.65471450	15.02778188
C	12.96373147	22.44842278	18.72620293
C	11.45886709	21.10437663	17.67329120
C	16.86552212	19.17510034	13.28602093
C	17.74253409	19.97535856	13.94152656
C	11.68454639	22.60544518	19.40586577
C	10.82759247	21.79807800	18.77918935
C	13.13913854	18.91009303	14.24658750
C	16.94075180	22.29329608	16.95553129
C	15.30629789	23.07756429	18.24716695
C	11.55403070	19.51405871	15.75494200
C	11.96010144	18.08501256	14.06280242
C	17.52607197	23.25409976	17.85453428
C	16.46867525	23.81324326	18.60359540
C	10.98225385	18.50679896	14.94685703
H	11.84731867	17.26991631	13.35115955
H	18.58550821	23.56690925	17.88127803
H	16.35304612	24.68795756	19.24859630
H	10.00071466	18.04833699	14.97825430
H	17.14336777	18.44897595	12.48873067
H	18.82817094	20.01317507	13.82906924
H	11.50509529	23.17099823	20.31030802
H	9.78292201	21.81745761	18.85404776
H	21.39923367	23.95423814	14.59622711
H	13.09050690	27.52009624	19.78945175
H	7.81010943	17.50349367	18.95118748
H	21.93746355	21.11327392	17.76512163
H	14.75790345	25.31751355	23.09883882
H	6.28451200	20.34195044	16.14160560
H	15.00488300	20.68027146	15.55915833
H	13.46605485	21.35846643	16.93572467
C	23.27456228	22.88511886	16.16996121
H	23.42625497	23.65335789	15.43735909
H	23.97493461	22.00013220	15.89675577
H	23.61419499	23.24446074	17.12677364
C	19.30929384	20.13885023	17.70588079
H	18.89898911	20.47938832	18.68534713
H	20.05692670	19.38651482	17.91413429
H	18.49606224	19.79492927	17.10308859
C	18.83987845	23.49120085	13.99286392
H	17.82368014	23.58373455	14.35863008
H	18.90467523	22.83874094	13.07392419
H	19.20888849	24.48374948	13.69172784
C	10.53456718	18.18392229	18.75494716
H	10.50222458	17.08785805	18.75875111
H	10.46724873	18.38654080	19.87187407
H	11.42082441	18.50920078	18.30359135
C	8.62976863	21.43248207	15.30419275
H	8.91840710	22.30784687	15.84693358
H	7.68271392	21.68013300	14.81904772
H	9.29389441	21.14287175	14.50378819
C	5.57814473	18.38214819	18.09827368
H	4.57734595	18.74826658	17.69069150
H	5.50250003	18.62313565	19.17220751
H	5.48598110	17.28216165	17.98382256
C	13.16554515	25.60795375	17.98932538
H	12.30265601	25.01380513	17.81519445
H	13.90506556	25.34264514	17.26346199
H	12.85091091	26.67245529	17.80089966
C	14.88774212	23.00545531	21.98788574
H	14.91318942	22.19148447	21.25859712
H	14.12357786	22.62478658	22.71793208
H	15.87112148	23.00915196	22.59188462
C	13.83637564	27.93360914	22.34692871
H	13.15779088	28.53413284	21.69931234
H	14.79585367	28.44708682	22.48358631
H	13.42935800	27.67992717	23.32413276
C	21.81067686	22.49294003	16.13229253
C	19.88872460	21.27687557	16.91584095
C	19.66812092	22.82077959	15.03521032
C	13.64042713	25.55409480	19.40380665
C	14.43628642	24.31729496	21.32679224
C	13.96994604	26.66734124	21.55917742
C	9.34073396	18.68811222	18.01158398
C	8.42510753	20.29431965	16.30895106
C	6.90683023	18.88959830	17.62708423
H	14.28118968	16.02178422	13.52018312
H	14.46961355	19.54760349	11.10151145
C	14.35296480	17.90968742	12.42276009
C	14.28916899	16.50763177	12.51891899
C	14.46572089	18.45395048	11.17703560

Ti O H C N 0
6-31G*
****

