%chk=f00011363.chk
%mem=24GB
%nproc=12
#p b3lyp/6-31G*

title

0 1
Ti	2.81187400	0.19704000	1.10336000
Ti	0.90594400	5.44057000	1.10336000
Ti	4.71781400	5.44057000	1.10336000
Ti	0.90594400	2.47241000	1.99114000
Ti	4.71781400	2.47241000	1.99114000
Ti	2.81187400	7.71594000	1.99115000
O	2.81187400	8.81302000	0.37332000
O	0.90594400	3.56949000	0.37332000
O	4.71781400	3.56949000	0.37332000
O	0.90594400	0.60134000	1.26110000
O	4.71781400	0.60134000	1.26110000
O	2.81187400	5.84486000	1.26111000
O	2.81187400	2.06812000	1.83340000
O	0.90594400	7.31164000	1.83340000
O	4.71781400	7.31164000	1.83340000
O	0.90594400	4.34349000	2.72118000
O	4.71781400	4.34349000	2.72118000
O	2.81187400	9.58701000	2.72118000
Ti	6.62374588	0.19704000	1.10336000
Ti	21.87123776	0.19704000	1.10336000
Ti	8.52968588	5.44057000	1.10336000
Ti	23.77717776	5.44057000	1.10336000
Ti	8.52968588	2.47241000	1.99114000
Ti	23.77717776	2.47241000	1.99114000
Ti	6.62374588	7.71594000	1.99115000
Ti	21.87123776	7.71594000	1.99115000
Ti	10.43561588	0.19704000	1.10336000
Ti	25.68310776	0.19704000	1.10336000
Ti	14.24749588	0.19704000	1.10336000
Ti	29.49498776	0.19704000	1.10336000
Ti	18.05936588	0.19704000	1.10336000
Ti	12.34155588	5.44057000	1.10336000
Ti	27.58904776	5.44057000	1.10336000
Ti	16.15343588	5.44057000	1.10336000
Ti	19.96530588	5.44057000	1.10336000
Ti	12.34155588	2.47241000	1.99114000
Ti	27.58904776	2.47241000	1.99114000
Ti	16.15343588	2.47241000	1.99114000
Ti	19.96530588	2.47241000	1.99114000
Ti	10.43561588	7.71594000	1.99115000
Ti	25.68310776	7.71594000	1.99115000
Ti	14.24749588	7.71594000	1.99115000
Ti	29.49498776	7.71594000	1.99115000
Ti	18.05936588	7.71594000	1.99115000
O	6.62374588	8.81302000	0.37332000
O	21.87123776	8.81302000	0.37332000
O	8.52968588	3.56949000	0.37332000
O	23.77717776	3.56949000	0.37332000
O	8.52968588	0.60134000	1.26110000
O	23.77717776	0.60134000	1.26110000
O	6.62374588	5.84486000	1.26111000
O	21.87123776	5.84486000	1.26111000
O	6.62374588	2.06812000	1.83340000
O	21.87123776	2.06812000	1.83340000
O	8.52968588	7.31164000	1.83340000
O	23.77717776	7.31164000	1.83340000
O	8.52968588	4.34349000	2.72118000
O	23.77717776	4.34349000	2.72118000
O	6.62374588	9.58701000	2.72118000
O	21.87123776	9.58701000	2.72118000
O	10.43561588	8.81302000	0.37332000
O	25.68310776	8.81302000	0.37332000
O	14.24749588	8.81302000	0.37332000
O	29.49498776	8.81302000	0.37332000
O	18.05936588	8.81302000	0.37332000
O	12.34155588	3.56949000	0.37332000
O	27.58904776	3.56949000	0.37332000
O	16.15343588	3.56949000	0.37332000
O	19.96530588	3.56949000	0.37332000
O	12.34155588	0.60134000	1.26110000
O	27.58904776	0.60134000	1.26110000
O	16.15343588	0.60134000	1.26110000
O	19.96530588	0.60134000	1.26110000
O	10.43561588	5.84486000	1.26111000
O	25.68310776	5.84486000	1.26111000
O	14.24749588	5.84486000	1.26111000
O	29.49498776	5.84486000	1.26111000
O	18.05936588	5.84486000	1.26111000
O	10.43561588	2.06812000	1.83340000
O	25.68310776	2.06812000	1.83340000
O	14.24749588	2.06812000	1.83340000
O	29.49498776	2.06812000	1.83340000
O	18.05936588	2.06812000	1.83340000
O	12.34155588	7.31164000	1.83340000
O	27.58904776	7.31164000	1.83340000
O	16.15343588	7.31164000	1.83340000
O	19.96530588	7.31164000	1.83340000
O	12.34155588	4.34349000	2.72118000
O	27.58904776	4.34349000	2.72118000
O	16.15343588	4.34349000	2.72118000
O	19.96530588	4.34349000	2.72118000
O	10.43561588	9.58701000	2.72118000
O	25.68310776	9.58701000	2.72118000
O	14.24749588	9.58701000	2.72118000
O	29.49498776	9.58701000	2.72118000
O	18.05936588	9.58701000	2.72118000
Ti	2.81187400	10.68408607	1.10336000
Ti	2.81187400	21.17113214	1.10336000
Ti	0.90594400	15.92761607	1.10336000
Ti	0.90594400	26.41466214	1.10336000
Ti	4.71781400	15.92761607	1.10336000
Ti	4.71781400	26.41466214	1.10336000
Ti	0.90594400	12.95945607	1.99114000
Ti	0.90594400	23.44650214	1.99114000
Ti	4.71781400	12.95945607	1.99114000
Ti	4.71781400	23.44650214	1.99114000
Ti	2.81187400	18.20298607	1.99115000
Ti	2.81187400	28.69003214	1.99115000
O	2.81187400	19.30006607	0.37332000
O	2.81187400	29.78711214	0.37332000
O	0.90594400	14.05653607	0.37332000
O	0.90594400	24.54358214	0.37332000
O	4.71781400	14.05653607	0.37332000
O	4.71781400	24.54358214	0.37332000
O	0.90594400	11.08838607	1.26110000
O	0.90594400	21.57543214	1.26110000
O	4.71781400	11.08838607	1.26110000
O	4.71781400	21.57543214	1.26110000
O	2.81187400	16.33190607	1.26111000
O	2.81187400	26.81895214	1.26111000
O	2.81187400	12.55516607	1.83340000
O	2.81187400	23.04221214	1.83340000
O	0.90594400	17.79868607	1.83340000
O	0.90594400	28.28573214	1.83340000
O	4.71781400	17.79868607	1.83340000
O	4.71781400	28.28573214	1.83340000
O	0.90594400	14.83053607	2.72118000
O	0.90594400	25.31758214	2.72118000
O	4.71781400	14.83053607	2.72118000
O	4.71781400	25.31758214	2.72118000
O	2.81187400	20.07405607	2.72118000
O	2.81187400	30.56110214	2.72118000
Ti	6.62374588	10.68408607	1.10336000
Ti	6.62374588	21.17113214	1.10336000
Ti	21.87123776	10.68408607	1.10336000
Ti	21.87123776	21.17113214	1.10336000
Ti	8.52968588	15.92761607	1.10336000
Ti	8.52968588	26.41466214	1.10336000
Ti	23.77717776	15.92761607	1.10336000
Ti	23.77717776	26.41466214	1.10336000
Ti	8.52968588	12.95945607	1.99114000
Ti	8.52968588	23.44650214	1.99114000
Ti	23.77717776	12.95945607	1.99114000
Ti	23.77717776	23.44650214	1.99114000
Ti	6.62374588	18.20298607	1.99115000
Ti	6.62374588	28.69003214	1.99115000
Ti	21.87123776	18.20298607	1.99115000
Ti	21.87123776	28.69003214	1.99115000
Ti	10.43561588	10.68408607	1.10336000
Ti	10.43561588	21.17113214	1.10336000
Ti	25.68310776	10.68408607	1.10336000
Ti	25.68310776	21.17113214	1.10336000
Ti	14.24749588	10.68408607	1.10336000
Ti	14.24749588	21.17113214	1.10336000
Ti	29.49498776	10.68408607	1.10336000
Ti	29.49498776	21.17113214	1.10336000
Ti	18.05936588	10.68408607	1.10336000
Ti	18.05936588	21.17113214	1.10336000
Ti	12.34155588	15.92761607	1.10336000
Ti	12.34155588	26.41466214	1.10336000
Ti	27.58904776	15.92761607	1.10336000
Ti	27.58904776	26.41466214	1.10336000
Ti	16.15343588	15.92761607	1.10336000
Ti	16.15343588	26.41466214	1.10336000
Ti	19.96530588	15.92761607	1.10336000
Ti	19.96530588	26.41466214	1.10336000
Ti	12.34155588	12.95945607	1.99114000
Ti	12.34155588	23.44650214	1.99114000
Ti	27.58904776	12.95945607	1.99114000
Ti	27.58904776	23.44650214	1.99114000
Ti	16.15343588	12.95945607	1.99114000
Ti	16.15343588	23.44650214	1.99114000
Ti	19.96530588	12.95945607	1.99114000
Ti	19.96530588	23.44650214	1.99114000
Ti	10.43561588	18.20298607	1.99115000
Ti	10.43561588	28.69003214	1.99115000
Ti	25.68310776	18.20298607	1.99115000
Ti	25.68310776	28.69003214	1.99115000
Ti	14.24749588	18.20298607	1.99115000
Ti	14.24749588	28.69003214	1.99115000
Ti	29.49498776	18.20298607	1.99115000
Ti	29.49498776	28.69003214	1.99115000
Ti	18.05936588	18.20298607	1.99115000
Ti	18.05936588	28.69003214	1.99115000
O	6.62374588	19.30006607	0.37332000
O	6.62374588	29.78711214	0.37332000
O	21.87123776	19.30006607	0.37332000
O	21.87123776	29.78711214	0.37332000
O	8.52968588	14.05653607	0.37332000
O	8.52968588	24.54358214	0.37332000
O	23.77717776	14.05653607	0.37332000
O	23.77717776	24.54358214	0.37332000
O	8.52968588	11.08838607	1.26110000
O	8.52968588	21.57543214	1.26110000
O	23.77717776	11.08838607	1.26110000
O	23.77717776	21.57543214	1.26110000
O	6.62374588	16.33190607	1.26111000
O	6.62374588	26.81895214	1.26111000
O	21.87123776	16.33190607	1.26111000
O	21.87123776	26.81895214	1.26111000
O	6.62374588	12.55516607	1.83340000
O	6.62374588	23.04221214	1.83340000
O	21.87123776	12.55516607	1.83340000
O	21.87123776	23.04221214	1.83340000
O	8.52968588	17.79868607	1.83340000
O	8.52968588	28.28573214	1.83340000
O	23.77717776	17.79868607	1.83340000
O	23.77717776	28.28573214	1.83340000
O	8.52968588	14.83053607	2.72118000
O	8.52968588	25.31758214	2.72118000
O	23.77717776	14.83053607	2.72118000
O	23.77717776	25.31758214	2.72118000
O	6.62374588	20.07405607	2.72118000
O	6.62374588	30.56110214	2.72118000
O	21.87123776	20.07405607	2.72118000
O	21.87123776	30.56110214	2.72118000
O	10.43561588	19.30006607	0.37332000
O	10.43561588	29.78711214	0.37332000
O	25.68310776	19.30006607	0.37332000
O	25.68310776	29.78711214	0.37332000
O	14.24749588	19.30006607	0.37332000
O	14.24749588	29.78711214	0.37332000
O	29.49498776	19.30006607	0.37332000
O	29.49498776	29.78711214	0.37332000
O	18.05936588	19.30006607	0.37332000
O	18.05936588	29.78711214	0.37332000
O	12.34155588	14.05653607	0.37332000
O	12.34155588	24.54358214	0.37332000
O	27.58904776	14.05653607	0.37332000
O	27.58904776	24.54358214	0.37332000
O	16.15343588	14.05653607	0.37332000
O	16.15343588	24.54358214	0.37332000
O	19.96530588	14.05653607	0.37332000
O	19.96530588	24.54358214	0.37332000
O	12.34155588	11.08838607	1.26110000
O	12.34155588	21.57543214	1.26110000
O	27.58904776	11.08838607	1.26110000
O	27.58904776	21.57543214	1.26110000
O	16.15343588	11.08838607	1.26110000
O	16.15343588	21.57543214	1.26110000
O	19.96530588	11.08838607	1.26110000
O	19.96530588	21.57543214	1.26110000
O	10.43561588	16.33190607	1.26111000
O	10.43561588	26.81895214	1.26111000
O	25.68310776	16.33190607	1.26111000
O	25.68310776	26.81895214	1.26111000
O	14.24749588	16.33190607	1.26111000
O	14.24749588	26.81895214	1.26111000
O	29.49498776	16.33190607	1.26111000
O	29.49498776	26.81895214	1.26111000
O	18.05936588	16.33190607	1.26111000
O	18.05936588	26.81895214	1.26111000
O	10.43561588	12.55516607	1.83340000
O	10.43561588	23.04221214	1.83340000
O	25.68310776	12.55516607	1.83340000
O	25.68310776	23.04221214	1.83340000
O	14.24749588	12.55516607	1.83340000
O	14.24749588	23.04221214	1.83340000
O	29.49498776	12.55516607	1.83340000
O	29.49498776	23.04221214	1.83340000
O	18.05936588	12.55516607	1.83340000
O	18.05936588	23.04221214	1.83340000
O	12.34155588	17.79868607	1.83340000
O	12.34155588	28.28573214	1.83340000
O	27.58904776	17.79868607	1.83340000
O	27.58904776	28.28573214	1.83340000
O	16.15343588	17.79868607	1.83340000
O	16.15343588	28.28573214	1.83340000
O	19.96530588	17.79868607	1.83340000
O	19.96530588	28.28573214	1.83340000
O	12.34155588	14.83053607	2.72118000
O	12.34155588	25.31758214	2.72118000
O	27.58904776	14.83053607	2.72118000
O	27.58904776	25.31758214	2.72118000
O	16.15343588	14.83053607	2.72118000
O	16.15343588	25.31758214	2.72118000
O	19.96530588	14.83053607	2.72118000
O	19.96530588	25.31758214	2.72118000
O	10.43561588	20.07405607	2.72118000
O	10.43561588	30.56110214	2.72118000
O	25.68310776	20.07405607	2.72118000
O	25.68310776	30.56110214	2.72118000
O	14.24749588	20.07405607	2.72118000
O	14.24749588	30.56110214	2.72118000
O	29.49498776	20.07405607	2.72118000
O	29.49498776	30.56110214	2.72118000
O	18.05936588	20.07405607	2.72118000
O	18.05936588	30.56110214	2.72118000
Ti	6.66487517	9.19834357	4.70483383
Ti	6.58347227	6.23513790	5.50682334
Ti	2.83627501	9.24170204	4.65240880
Ti	0.90988065	3.83150110	4.77806157
Ti	4.65926377	3.94838745	4.82850791
Ti	0.87889478	0.97582860	5.50775849
Ti	4.69487598	1.04376474	5.43612965
Ti	2.70073714	6.29335732	5.46751324
O	6.57374482	7.27416526	3.90864791
O	6.62523770	4.32741813	4.72504874
O	6.61203462	0.61596782	5.67197472
O	6.90909982	7.97540039	6.32888209
O	2.65783470	7.39976156	3.88125839
O	0.81804129	1.97401211	3.89836544
O	4.80302302	2.12028785	3.95792399
O	0.94704701	9.53139730	4.78003228
O	4.79760397	9.62028394	4.71620559
O	2.78776314	4.49726903	4.80191781
O	2.79425523	0.43788311	5.73570719
O	0.87288073	5.65967500	5.89678882
O	4.62899631	5.88141467	5.75989263
O	0.90441045	2.79598468	6.39466502
O	4.56364243	2.75514371	6.44398054
O	2.87454469	8.04176456	6.34071495
Ti	21.84117608	9.27893013	4.67178716
Ti	8.51417132	3.98670373	4.79268766
Ti	23.75593785	3.99074946	4.75079868
Ti	8.55967217	1.12897660	5.59536676
Ti	23.82814754	1.11817390	5.45001723
Ti	21.84877330	6.33255688	5.47231661
Ti	10.59154421	9.18995502	4.70335008
Ti	25.65646770	9.19350565	4.80047853
Ti	14.24579655	9.20261870	4.89542907
Ti	29.58488146	9.12168060	4.78440769
Ti	18.06348132	9.17752198	4.66263243
Ti	12.38713707	3.94059895	4.88218972
Ti	27.62265445	4.01624547	4.75436252
Ti	16.12809660	3.94483436	4.82546149
Ti	20.02843718	3.99205519	4.80153095
Ti	12.41569919	0.98838858	5.49386328
Ti	27.54440187	1.09783343	5.53616162
Ti	16.13642489	1.03433065	5.47825616
Ti	19.97591539	0.98308513	5.39826740
Ti	10.43780767	6.29169853	5.42083333
Ti	25.76157447	6.25415161	5.35873392
Ti	14.27571477	6.32695037	5.65785298
Ti	29.57114152	6.16120726	5.50661850
Ti	18.11895842	6.31100594	5.53177898
O	21.97604440	7.40197042	3.98880088
O	8.58215055	2.01215949	3.92057184
O	23.84795268	2.09776686	3.89596521
O	8.65653705	9.67041421	4.57151284
O	23.74045833	9.56972451	5.01427037
O	21.91414524	4.42889914	4.67180595
O	21.77395283	0.52547115	5.74623984
O	8.48348634	5.75119732	5.72281898
O	23.80416256	5.77007031	5.69244810
O	8.45687832	2.86664719	6.42216807
O	23.78608593	2.89123879	6.33910251
O	21.76078663	7.97668448	6.44622093
O	10.37615909	7.29081984	3.84281966
O	25.63260464	7.27486125	3.86435049
O	14.06211568	7.30890025	3.94892130
O	29.53072191	7.31012491	3.98460982
O	18.12258195	7.24147913	3.84445017
O	12.48180511	2.13205485	3.98705420
O	27.71589902	2.06495169	3.90689205
O	16.27203582	2.13039895	3.92633209
O	19.88296482	2.22679534	3.98567805
O	12.40463678	9.72429815	4.87909032
O	27.62920659	9.60972416	4.86012125
O	16.15953948	9.64032174	4.86421124
O	19.89721762	9.74575065	4.63028214
O	10.47584256	4.32979814	4.86257256
O	25.73241588	4.36278836	4.79227983
O	14.31485504	4.42209344	4.95608663
O	29.58129876	4.36999058	4.71943506
O	18.06716308	4.36442419	5.07563677
O	10.47154633	0.52574169	5.87569458
O	25.70449262	0.77057335	5.67391058
O	14.27624619	0.47433725	5.79055812
O	29.45142810	0.44775792	5.72913763
O	18.10582375	0.58200746	5.75010676
O	12.28769915	5.90392063	5.77315828
O	27.71258931	5.86497415	5.86343906
O	16.25826425	5.92217445	5.77001823
O	20.04768365	5.71889961	5.68495955
O	12.35122866	2.72066280	6.41757617
O	27.62571802	2.81064127	6.38861579
O	16.24444020	2.72719765	6.34365815
O	19.98350420	2.82373715	6.45206688
O	10.41029549	7.99053537	6.28782903
O	25.72744655	7.92321371	6.37028526
O	14.41542212	8.10598923	6.43414666
O	29.48126963	8.00740918	6.39619389
O	18.31388835	8.00653757	6.29754214
Ti	6.60489958	19.67596911	4.69956298
Ti	6.54837374	30.23205148	4.69001036
Ti	6.61726890	16.76545607	5.49993045
Ti	6.61310342	27.22270819	5.47315085
Ti	2.74567380	19.68375217	4.83620242
Ti	2.83773784	30.12119525	4.71709285
Ti	0.92922840	14.53979587	4.80030284
Ti	0.94873379	24.98077057	4.73893143
Ti	4.70157377	14.46713416	4.77259797
Ti	4.81709191	24.92653313	4.75976961
Ti	0.84490370	11.47999583	5.33945073
Ti	0.84627976	22.09679774	5.52245874
Ti	4.76268757	11.51141868	5.55139973
Ti	4.79264860	22.01258409	5.53661523
Ti	2.86382971	16.77105329	5.43635140
Ti	2.89379066	27.16198370	5.46588521
O	6.60596785	17.72664630	3.86790174
O	6.44506815	28.34659958	3.88605219
O	6.58057713	14.83950472	4.79084382
O	6.61243508	25.50604025	4.47112181
O	6.71006284	11.00255112	5.83189925
O	6.61103134	21.43123594	5.92252995
O	6.80615901	18.53500752	6.25792600
O	6.58197812	29.01183696	6.27341663
O	2.64437429	17.90269538	3.98591866
O	2.88270138	28.24130771	3.86719449
O	0.70191947	12.49350080	3.83574792
O	0.91641645	23.01172160	3.92901935
O	4.69519976	12.63748018	3.97612362
O	4.75393928	23.00638846	3.93964119
O	0.91999922	20.18635001	4.87165148
O	0.86272396	30.35424888	4.87746615
O	4.67149607	20.11479639	5.01527006
O	4.70868233	30.76521330	4.56332889
O	2.83397160	14.91202636	4.71506768
O	2.85255612	25.24983831	4.73126759
O	2.80744711	11.07919768	5.50255517
O	2.85116958	21.64110743	5.81922498
O	0.94257828	16.33312015	5.69168289
O	0.79291956	26.81834775	5.53982338
O	4.77903588	16.37593684	5.79095746
O	4.77258284	26.68234330	5.86742262
O	0.92284586	13.24186126	6.26012138
O	1.12461364	23.86825686	6.35446928
O	4.78325132	13.38340643	6.36065612
O	4.90066801	23.82820865	6.32609951
O	2.73457495	18.47547790	6.44899436
O	2.69721419	28.99228187	6.39632900
Ti	21.82066478	19.70090127	4.67616523
Ti	21.89698866	30.19471817	4.69548801
Ti	8.39960223	14.44174843	4.87913862
Ti	8.50228192	25.03907084	4.74029701
Ti	23.69815204	14.45027198	4.73939207
Ti	23.70845428	24.88849090	4.63005118
Ti	8.62745023	11.53569057	5.48691025
Ti	8.44739463	22.13490453	5.48499385
Ti	23.77787207	11.50647156	5.47271993
Ti	23.63866070	21.97759185	5.50247194
Ti	21.84952437	16.75521931	5.55516295
Ti	21.85087442	27.24345178	5.33219485
Ti	10.42881120	19.61355265	4.71065899
Ti	10.32934014	30.17713841	4.75553039
Ti	25.67953217	19.68030932	4.76852614
Ti	25.59432253	30.25577472	4.75548391
Ti	14.25273691	19.70952734	4.73221677
Ti	14.21273290	30.15900330	4.80019103
Ti	29.41241003	19.80778243	4.75434451
Ti	29.48054249	30.14363862	4.75609113
Ti	18.00614789	19.72639311	4.79973600
Ti	18.07051257	30.15353718	4.88055430
Ti	12.31139712	14.50606432	4.70778421
Ti	12.30669663	24.99797616	4.87656321
Ti	27.55123656	14.44814989	4.69800587
Ti	27.41931609	24.95655961	4.71107653
Ti	16.11011609	14.48166104	4.67371214
Ti	16.10007900	25.02089346	4.71288512
Ti	19.87708736	14.46749896	4.79420339
Ti	19.94124164	24.97784835	4.80880181
Ti	12.37062322	11.62953058	5.46887054
Ti	12.27958714	22.03784506	5.43220715
Ti	27.55341222	11.55545347	5.50628772
Ti	27.51440660	22.11121262	5.63574648
Ti	16.18085232	11.54023810	5.49844302
Ti	16.01134036	22.11247434	5.56420875
Ti	19.96516379	11.60711779	5.60169004
Ti	19.90547917	22.04113324	5.37412578
Ti	10.36365839	16.68741581	5.43295495
Ti	10.37248311	27.31466305	5.47186398
Ti	25.63572301	16.74193975	5.47949493
Ti	25.60132145	27.33770059	5.54511713
Ti	14.09118079	16.84122301	5.86327335
Ti	14.15554351	27.26313910	5.68137126
Ti	29.40315034	16.87917664	5.44782113
Ti	29.40120620	27.21772314	5.41815647
Ti	17.99484947	16.74131914	5.42302314
Ti	18.02556921	27.20608164	5.45746093
O	21.77631346	17.89752604	3.96505361
O	22.01106648	28.31592661	3.87796789
O	8.49049650	12.64327809	3.94005164
O	8.53917645	23.15200218	3.89390853
O	23.73242957	12.45605574	3.92725082
O	23.85569436	23.01745672	3.85769538
O	8.50783166	20.25407314	4.66877860
O	8.49530969	30.66682178	4.90372677
O	23.74713983	20.10790757	4.73457856
O	23.74295253	30.65652595	4.82022411
O	21.79424983	14.89634764	4.93860683
O	21.83082669	25.50207243	4.61975808
O	21.83405290	11.25340695	5.84591176
O	21.82435810	21.49501359	5.76017903
O	8.42123237	16.26835917	5.88334586
O	8.58497616	26.72017397	5.82048613
O	23.72808297	16.28612127	5.81002250
O	23.63354330	26.75693356	5.85114269
O	8.38483971	13.17971883	6.36986944
O	8.24928770	23.87504780	6.22623115
O	23.69949085	13.25449461	6.46008929
O	23.70340010	23.81396836	6.26237446
O	21.87035111	18.56344393	6.32443438
O	21.91505733	29.02042808	6.35554909
O	10.20944968	17.79556160	3.93468124
O	10.27628672	28.29303263	3.95625366
O	25.64662653	17.74731828	3.91076502
O	25.58241798	28.43651362	3.97095185
O	14.31854250	17.83316076	3.97610001
O	14.37106433	28.22301780	4.01101409
O	29.27240560	17.82418190	3.88911360
O	29.34768934	28.27057318	3.89951911
O	18.02781604	17.85048905	3.87354383
O	17.78065950	28.30158159	3.93814560
O	12.39766655	12.59578071	3.86138540
O	12.42924503	23.13526392	3.99865592
O	27.28793319	12.55382855	3.89970475
O	27.29445281	23.10145104	4.07950639
O	16.05281455	12.56601366	3.90654441
O	16.03580628	23.10088820	3.96449820
O	20.06249968	12.66376291	3.98093627
O	20.02256390	23.21203194	3.97409609
O	12.25338572	20.19261684	4.64248078
O	12.30568297	30.59788352	4.76776652
O	27.52025549	20.23524926	4.64809726
O	27.56320579	30.58544217	4.87398142
O	16.11528888	20.14893584	5.00520552
O	16.17181631	30.54570186	5.00456555
O	19.85973291	20.21786048	4.58939305
O	19.95608297	30.66311793	4.65909568
O	10.32249883	14.66671652	4.79499616
O	10.38693748	25.39870254	4.73690933
O	25.67345132	14.84061813	4.89267885
O	25.60405917	25.45402012	4.66824654
O	14.24291452	14.92581289	4.83030919
O	14.12439847	25.53555858	4.77039217
O	29.47025355	14.92617983	4.91645802
O	29.42563562	25.17941114	4.98650692
O	18.01120861	14.88678818	4.63695937
O	18.03238308	25.39920973	4.86739467
O	10.46247228	11.14401473	5.80172834
O	10.33947882	21.53497261	5.67557846
O	25.74426745	10.99436634	5.70546723
O	25.67622723	21.50094538	5.78329667
O	14.27053579	11.15292198	5.84438418
O	14.12508369	21.61322109	5.79513294
O	29.47657805	10.96821599	5.54241174
O	29.39893476	21.71413238	5.69649507
O	18.09260682	10.91703405	5.74079785
O	17.99335742	21.51875713	5.90178834
O	12.20895425	16.26898436	5.50626612
O	12.23274120	26.81157573	5.71465056
O	27.56774156	16.33038898	5.67079487
O	27.48599768	26.81245352	5.81459764
O	16.10163630	16.24914868	5.77635938
O	16.06079177	26.76635125	5.93922602
O	19.87259427	16.32522909	5.67069781
O	19.91327206	26.86718447	5.69167219
O	12.50026292	13.40753777	6.33047405
O	12.34366892	23.76035130	6.38785724
O	27.53349893	13.26123911	6.27749169
O	27.46456360	23.87729152	6.43864900
O	16.35933521	13.33399777	6.27779628
O	16.03575225	23.83155041	6.37121895
O	19.70641284	13.35463433	6.41509186
O	19.96386171	23.82574792	6.36680445
O	10.32281894	18.47026571	6.37292092
O	10.45206002	28.98921180	6.39102190
O	25.83824316	18.45738883	6.30044342
O	25.67675018	29.13501985	6.42013379
O	13.88646801	18.66469371	6.29781563
O	14.13060630	29.12430457	6.49600583
O	29.34756176	18.67091866	6.36651460
O	29.48317102	28.93450740	6.41999154
O	18.24704289	18.52401856	6.27213649
O	18.00348811	28.90822720	6.31846950
H	13.03770421	13.99801624	8.11092538
H	14.04476991	14.90414233	11.50005296
H	13.59852304	18.41683126	8.89335624
O	13.92890287	16.05539853	7.61155188
O	13.28768933	14.42166848	9.00699499
C	13.68820505	15.63964057	8.83296786
C	13.95454227	16.52514426	9.93431726
C	14.07260682	15.95668324	11.24830566
C	13.77915312	17.89302378	9.81560001
N	13.32308804	19.49916683	15.67527332
N	15.77634608	22.60258902	16.97156336
N	15.42519624	20.85329991	14.43080919
N	13.76585714	21.01084407	18.15282797
C	20.18501313	24.09344684	13.42247086
C	16.39130002	23.51426985	22.78942034
C	8.42883765	19.00911644	19.32610203
C	17.89521898	23.81484932	14.14176687
C	15.42712403	23.44248797	20.65870128
C	10.67662498	18.78491557	18.44795972
C	18.55909495	25.76078705	12.86611123
C	15.37546332	25.55805383	21.98035949
C	9.72674028	17.09165149	19.90704021
C	14.15497845	19.10449839	13.38358681
C	16.88766352	22.92952619	14.81377041
C	15.21018482	22.73716427	19.38784446
C	11.89177556	19.37507131	17.76026416
C	15.18021800	20.06281867	13.38758757
C	16.29573418	21.84269324	14.05683871
C	14.22146908	21.72527413	19.23093624
C	12.74991090	20.18929725	18.50873511
C	15.91380812	20.55175264	12.24117155
C	16.58586713	21.68507621	12.64794563
C	13.50909690	21.26578440	20.36194905
C	12.55343641	20.39237544	19.95354236
C	13.24425666	18.90597983	14.43350250
C	16.72988755	23.23088253	16.15364122
C	15.92531142	23.17466223	18.23382299
C	12.23715518	18.99583685	16.41834147
C	12.08462853	18.02123671	14.41014344
C	17.48924436	24.21329483	16.90775910
C	17.03947824	24.11537742	18.22192764
C	11.50771102	18.04595240	15.66217319
H	11.91952054	17.33616385	13.59228655
H	18.25890730	24.90306249	16.47378629
H	17.35010711	24.62987383	19.12463604
H	10.65273826	17.50136180	16.04702531
H	16.02117483	20.18713930	11.27402558
H	17.26266193	22.25819638	12.03135933
H	13.70201809	21.68616297	21.36421633
H	11.83236820	19.85707767	20.59033426
H	18.27820142	26.69968092	12.34359851
H	15.02364227	26.65483106	22.06508418
H	9.78920862	16.08591594	20.33187514
H	21.19378392	23.58064022	13.36071151
H	16.90989588	22.98116630	23.56722248
H	7.51807585	19.59761295	19.39472725
H	14.98687145	20.77880448	15.36026355
H	14.29764769	20.87946936	17.28233824
C	21.00356851	26.29201994	12.30596882
H	21.79390695	26.49178740	12.98137655
H	20.63002972	27.26902669	11.96270587
H	21.52577500	25.81404410	11.40967053
C	19.59353339	22.05436215	14.77916589
H	19.15160787	21.20683932	14.23031833
H	19.24234587	22.05890840	15.83772573
H	20.68423729	21.83959938	14.68451242
C	16.10818796	25.39425667	13.27990866
H	16.10693230	26.42119175	12.77492350
H	15.55983383	25.41902685	14.23437150
H	15.74497183	24.74192141	12.45882543
C	12.03746261	16.77185106	18.91480881
H	11.92028557	15.69567602	19.20190857
H	12.80282514	17.25882910	19.51431404
H	12.42130589	16.69318473	17.88135571
C	9.44273572	20.96217304	18.11230605
H	8.66987335	21.55160701	18.61657848
H	9.20455364	21.04814480	17.05742432
H	10.38383455	21.49799120	18.30702003
C	7.41421951	17.24236682	20.93848655
H	7.67089858	16.36977108	21.57107357
H	6.57035235	16.98170774	20.32541474
H	7.09806709	18.12676655	21.46781694
C	14.17312620	25.46495478	19.79289531
H	14.68909611	26.28281286	19.23066790
H	13.29861126	25.95334097	20.22068376
H	13.85217069	24.69951486	19.06591264
C	16.73068873	21.34149329	21.52107779
H	16.14226022	20.75149921	20.84626562
H	16.66275377	20.85523434	22.53574741
H	17.76387572	21.52394381	21.15181593
C	16.37135079	25.50406433	24.31613319
H	15.52255009	26.17519600	24.59473859
H	17.18974287	26.18908988	24.24967284
H	16.62243463	24.77019268	25.12346298
C	19.94477830	25.35877845	12.83573318
C	19.21060611	23.35641882	14.10460180
C	17.56153442	25.01865612	13.45310198
C	15.03454052	24.82039036	20.81323284
C	16.15623680	22.77833405	21.64105263
C	16.00424612	24.83804397	23.00782270
C	10.73034645	17.48608834	19.05035293
C	9.50784009	19.54965934	18.59176800
C	8.53978605	17.79826003	20.05907770
H	14.26558721	16.45821045	13.37623211
H	13.62732367	19.79804959	10.73278864
C	14.08395938	18.24785456	12.17666823
C	14.13603076	16.84615635	12.33296835
C	13.79943371	18.75695413	10.91180480

Ti O H C N 0
6-31G*
****

