%chk=f00018676.chk
%mem=24GB
%nproc=12
#p b3lyp/6-31G*

title

0 1
Ti	2.81187400	0.19704000	1.10336000
Ti	0.90594400	5.44057000	1.10336000
Ti	4.71781400	5.44057000	1.10336000
Ti	0.90594400	2.47241000	1.99114000
Ti	4.71781400	2.47241000	1.99114000
Ti	2.81187400	7.71594000	1.99115000
O	2.81187400	8.81302000	0.37332000
O	0.90594400	3.56949000	0.37332000
O	4.71781400	3.56949000	0.37332000
O	0.90594400	0.60134000	1.26110000
O	4.71781400	0.60134000	1.26110000
O	2.81187400	5.84486000	1.26111000
O	2.81187400	2.06812000	1.83340000
O	0.90594400	7.31164000	1.83340000
O	4.71781400	7.31164000	1.83340000
O	0.90594400	4.34349000	2.72118000
O	4.71781400	4.34349000	2.72118000
O	2.81187400	9.58701000	2.72118000
Ti	6.62374588	0.19704000	1.10336000
Ti	21.87123776	0.19704000	1.10336000
Ti	8.52968588	5.44057000	1.10336000
Ti	23.77717776	5.44057000	1.10336000
Ti	8.52968588	2.47241000	1.99114000
Ti	23.77717776	2.47241000	1.99114000
Ti	6.62374588	7.71594000	1.99115000
Ti	21.87123776	7.71594000	1.99115000
Ti	10.43561588	0.19704000	1.10336000
Ti	25.68310776	0.19704000	1.10336000
Ti	14.24749588	0.19704000	1.10336000
Ti	29.49498776	0.19704000	1.10336000
Ti	18.05936588	0.19704000	1.10336000
Ti	12.34155588	5.44057000	1.10336000
Ti	27.58904776	5.44057000	1.10336000
Ti	16.15343588	5.44057000	1.10336000
Ti	19.96530588	5.44057000	1.10336000
Ti	12.34155588	2.47241000	1.99114000
Ti	27.58904776	2.47241000	1.99114000
Ti	16.15343588	2.47241000	1.99114000
Ti	19.96530588	2.47241000	1.99114000
Ti	10.43561588	7.71594000	1.99115000
Ti	25.68310776	7.71594000	1.99115000
Ti	14.24749588	7.71594000	1.99115000
Ti	29.49498776	7.71594000	1.99115000
Ti	18.05936588	7.71594000	1.99115000
O	6.62374588	8.81302000	0.37332000
O	21.87123776	8.81302000	0.37332000
O	8.52968588	3.56949000	0.37332000
O	23.77717776	3.56949000	0.37332000
O	8.52968588	0.60134000	1.26110000
O	23.77717776	0.60134000	1.26110000
O	6.62374588	5.84486000	1.26111000
O	21.87123776	5.84486000	1.26111000
O	6.62374588	2.06812000	1.83340000
O	21.87123776	2.06812000	1.83340000
O	8.52968588	7.31164000	1.83340000
O	23.77717776	7.31164000	1.83340000
O	8.52968588	4.34349000	2.72118000
O	23.77717776	4.34349000	2.72118000
O	6.62374588	9.58701000	2.72118000
O	21.87123776	9.58701000	2.72118000
O	10.43561588	8.81302000	0.37332000
O	25.68310776	8.81302000	0.37332000
O	14.24749588	8.81302000	0.37332000
O	29.49498776	8.81302000	0.37332000
O	18.05936588	8.81302000	0.37332000
O	12.34155588	3.56949000	0.37332000
O	27.58904776	3.56949000	0.37332000
O	16.15343588	3.56949000	0.37332000
O	19.96530588	3.56949000	0.37332000
O	12.34155588	0.60134000	1.26110000
O	27.58904776	0.60134000	1.26110000
O	16.15343588	0.60134000	1.26110000
O	19.96530588	0.60134000	1.26110000
O	10.43561588	5.84486000	1.26111000
O	25.68310776	5.84486000	1.26111000
O	14.24749588	5.84486000	1.26111000
O	29.49498776	5.84486000	1.26111000
O	18.05936588	5.84486000	1.26111000
O	10.43561588	2.06812000	1.83340000
O	25.68310776	2.06812000	1.83340000
O	14.24749588	2.06812000	1.83340000
O	29.49498776	2.06812000	1.83340000
O	18.05936588	2.06812000	1.83340000
O	12.34155588	7.31164000	1.83340000
O	27.58904776	7.31164000	1.83340000
O	16.15343588	7.31164000	1.83340000
O	19.96530588	7.31164000	1.83340000
O	12.34155588	4.34349000	2.72118000
O	27.58904776	4.34349000	2.72118000
O	16.15343588	4.34349000	2.72118000
O	19.96530588	4.34349000	2.72118000
O	10.43561588	9.58701000	2.72118000
O	25.68310776	9.58701000	2.72118000
O	14.24749588	9.58701000	2.72118000
O	29.49498776	9.58701000	2.72118000
O	18.05936588	9.58701000	2.72118000
Ti	2.81187400	10.68408607	1.10336000
Ti	2.81187400	21.17113214	1.10336000
Ti	0.90594400	15.92761607	1.10336000
Ti	0.90594400	26.41466214	1.10336000
Ti	4.71781400	15.92761607	1.10336000
Ti	4.71781400	26.41466214	1.10336000
Ti	0.90594400	12.95945607	1.99114000
Ti	0.90594400	23.44650214	1.99114000
Ti	4.71781400	12.95945607	1.99114000
Ti	4.71781400	23.44650214	1.99114000
Ti	2.81187400	18.20298607	1.99115000
Ti	2.81187400	28.69003214	1.99115000
O	2.81187400	19.30006607	0.37332000
O	2.81187400	29.78711214	0.37332000
O	0.90594400	14.05653607	0.37332000
O	0.90594400	24.54358214	0.37332000
O	4.71781400	14.05653607	0.37332000
O	4.71781400	24.54358214	0.37332000
O	0.90594400	11.08838607	1.26110000
O	0.90594400	21.57543214	1.26110000
O	4.71781400	11.08838607	1.26110000
O	4.71781400	21.57543214	1.26110000
O	2.81187400	16.33190607	1.26111000
O	2.81187400	26.81895214	1.26111000
O	2.81187400	12.55516607	1.83340000
O	2.81187400	23.04221214	1.83340000
O	0.90594400	17.79868607	1.83340000
O	0.90594400	28.28573214	1.83340000
O	4.71781400	17.79868607	1.83340000
O	4.71781400	28.28573214	1.83340000
O	0.90594400	14.83053607	2.72118000
O	0.90594400	25.31758214	2.72118000
O	4.71781400	14.83053607	2.72118000
O	4.71781400	25.31758214	2.72118000
O	2.81187400	20.07405607	2.72118000
O	2.81187400	30.56110214	2.72118000
Ti	6.62374588	10.68408607	1.10336000
Ti	6.62374588	21.17113214	1.10336000
Ti	21.87123776	10.68408607	1.10336000
Ti	21.87123776	21.17113214	1.10336000
Ti	8.52968588	15.92761607	1.10336000
Ti	8.52968588	26.41466214	1.10336000
Ti	23.77717776	15.92761607	1.10336000
Ti	23.77717776	26.41466214	1.10336000
Ti	8.52968588	12.95945607	1.99114000
Ti	8.52968588	23.44650214	1.99114000
Ti	23.77717776	12.95945607	1.99114000
Ti	23.77717776	23.44650214	1.99114000
Ti	6.62374588	18.20298607	1.99115000
Ti	6.62374588	28.69003214	1.99115000
Ti	21.87123776	18.20298607	1.99115000
Ti	21.87123776	28.69003214	1.99115000
Ti	10.43561588	10.68408607	1.10336000
Ti	10.43561588	21.17113214	1.10336000
Ti	25.68310776	10.68408607	1.10336000
Ti	25.68310776	21.17113214	1.10336000
Ti	14.24749588	10.68408607	1.10336000
Ti	14.24749588	21.17113214	1.10336000
Ti	29.49498776	10.68408607	1.10336000
Ti	29.49498776	21.17113214	1.10336000
Ti	18.05936588	10.68408607	1.10336000
Ti	18.05936588	21.17113214	1.10336000
Ti	12.34155588	15.92761607	1.10336000
Ti	12.34155588	26.41466214	1.10336000
Ti	27.58904776	15.92761607	1.10336000
Ti	27.58904776	26.41466214	1.10336000
Ti	16.15343588	15.92761607	1.10336000
Ti	16.15343588	26.41466214	1.10336000
Ti	19.96530588	15.92761607	1.10336000
Ti	19.96530588	26.41466214	1.10336000
Ti	12.34155588	12.95945607	1.99114000
Ti	12.34155588	23.44650214	1.99114000
Ti	27.58904776	12.95945607	1.99114000
Ti	27.58904776	23.44650214	1.99114000
Ti	16.15343588	12.95945607	1.99114000
Ti	16.15343588	23.44650214	1.99114000
Ti	19.96530588	12.95945607	1.99114000
Ti	19.96530588	23.44650214	1.99114000
Ti	10.43561588	18.20298607	1.99115000
Ti	10.43561588	28.69003214	1.99115000
Ti	25.68310776	18.20298607	1.99115000
Ti	25.68310776	28.69003214	1.99115000
Ti	14.24749588	18.20298607	1.99115000
Ti	14.24749588	28.69003214	1.99115000
Ti	29.49498776	18.20298607	1.99115000
Ti	29.49498776	28.69003214	1.99115000
Ti	18.05936588	18.20298607	1.99115000
Ti	18.05936588	28.69003214	1.99115000
O	6.62374588	19.30006607	0.37332000
O	6.62374588	29.78711214	0.37332000
O	21.87123776	19.30006607	0.37332000
O	21.87123776	29.78711214	0.37332000
O	8.52968588	14.05653607	0.37332000
O	8.52968588	24.54358214	0.37332000
O	23.77717776	14.05653607	0.37332000
O	23.77717776	24.54358214	0.37332000
O	8.52968588	11.08838607	1.26110000
O	8.52968588	21.57543214	1.26110000
O	23.77717776	11.08838607	1.26110000
O	23.77717776	21.57543214	1.26110000
O	6.62374588	16.33190607	1.26111000
O	6.62374588	26.81895214	1.26111000
O	21.87123776	16.33190607	1.26111000
O	21.87123776	26.81895214	1.26111000
O	6.62374588	12.55516607	1.83340000
O	6.62374588	23.04221214	1.83340000
O	21.87123776	12.55516607	1.83340000
O	21.87123776	23.04221214	1.83340000
O	8.52968588	17.79868607	1.83340000
O	8.52968588	28.28573214	1.83340000
O	23.77717776	17.79868607	1.83340000
O	23.77717776	28.28573214	1.83340000
O	8.52968588	14.83053607	2.72118000
O	8.52968588	25.31758214	2.72118000
O	23.77717776	14.83053607	2.72118000
O	23.77717776	25.31758214	2.72118000
O	6.62374588	20.07405607	2.72118000
O	6.62374588	30.56110214	2.72118000
O	21.87123776	20.07405607	2.72118000
O	21.87123776	30.56110214	2.72118000
O	10.43561588	19.30006607	0.37332000
O	10.43561588	29.78711214	0.37332000
O	25.68310776	19.30006607	0.37332000
O	25.68310776	29.78711214	0.37332000
O	14.24749588	19.30006607	0.37332000
O	14.24749588	29.78711214	0.37332000
O	29.49498776	19.30006607	0.37332000
O	29.49498776	29.78711214	0.37332000
O	18.05936588	19.30006607	0.37332000
O	18.05936588	29.78711214	0.37332000
O	12.34155588	14.05653607	0.37332000
O	12.34155588	24.54358214	0.37332000
O	27.58904776	14.05653607	0.37332000
O	27.58904776	24.54358214	0.37332000
O	16.15343588	14.05653607	0.37332000
O	16.15343588	24.54358214	0.37332000
O	19.96530588	14.05653607	0.37332000
O	19.96530588	24.54358214	0.37332000
O	12.34155588	11.08838607	1.26110000
O	12.34155588	21.57543214	1.26110000
O	27.58904776	11.08838607	1.26110000
O	27.58904776	21.57543214	1.26110000
O	16.15343588	11.08838607	1.26110000
O	16.15343588	21.57543214	1.26110000
O	19.96530588	11.08838607	1.26110000
O	19.96530588	21.57543214	1.26110000
O	10.43561588	16.33190607	1.26111000
O	10.43561588	26.81895214	1.26111000
O	25.68310776	16.33190607	1.26111000
O	25.68310776	26.81895214	1.26111000
O	14.24749588	16.33190607	1.26111000
O	14.24749588	26.81895214	1.26111000
O	29.49498776	16.33190607	1.26111000
O	29.49498776	26.81895214	1.26111000
O	18.05936588	16.33190607	1.26111000
O	18.05936588	26.81895214	1.26111000
O	10.43561588	12.55516607	1.83340000
O	10.43561588	23.04221214	1.83340000
O	25.68310776	12.55516607	1.83340000
O	25.68310776	23.04221214	1.83340000
O	14.24749588	12.55516607	1.83340000
O	14.24749588	23.04221214	1.83340000
O	29.49498776	12.55516607	1.83340000
O	29.49498776	23.04221214	1.83340000
O	18.05936588	12.55516607	1.83340000
O	18.05936588	23.04221214	1.83340000
O	12.34155588	17.79868607	1.83340000
O	12.34155588	28.28573214	1.83340000
O	27.58904776	17.79868607	1.83340000
O	27.58904776	28.28573214	1.83340000
O	16.15343588	17.79868607	1.83340000
O	16.15343588	28.28573214	1.83340000
O	19.96530588	17.79868607	1.83340000
O	19.96530588	28.28573214	1.83340000
O	12.34155588	14.83053607	2.72118000
O	12.34155588	25.31758214	2.72118000
O	27.58904776	14.83053607	2.72118000
O	27.58904776	25.31758214	2.72118000
O	16.15343588	14.83053607	2.72118000
O	16.15343588	25.31758214	2.72118000
O	19.96530588	14.83053607	2.72118000
O	19.96530588	25.31758214	2.72118000
O	10.43561588	20.07405607	2.72118000
O	10.43561588	30.56110214	2.72118000
O	25.68310776	20.07405607	2.72118000
O	25.68310776	30.56110214	2.72118000
O	14.24749588	20.07405607	2.72118000
O	14.24749588	30.56110214	2.72118000
O	29.49498776	20.07405607	2.72118000
O	29.49498776	30.56110214	2.72118000
O	18.05936588	20.07405607	2.72118000
O	18.05936588	30.56110214	2.72118000
Ti	6.54835450	9.20810966	4.69322062
Ti	6.56833477	6.31214015	5.51604669
Ti	2.77496694	9.25119758	4.75335499
Ti	0.87925389	3.97480141	4.71078001
Ti	4.72573565	4.00948246	4.71344762
Ti	1.04040664	1.06676757	5.51154543
Ti	4.78016219	1.04089417	5.46147813
Ti	2.77673051	6.31855709	5.47770566
O	6.76354149	7.38661167	3.97338286
O	6.55915320	4.45421263	4.76655935
O	6.66585769	0.69021283	5.81966696
O	6.45961885	8.06548056	6.37979425
O	2.76804712	7.39717668	3.85601382
O	0.89169180	2.10946619	3.87960210
O	4.75271950	2.19305327	3.95816492
O	0.96966334	9.57501969	4.58671638
O	4.67640202	9.60697394	4.77830124
O	2.82600633	4.49874269	4.75099768
O	2.90854681	0.50513209	5.83814581
O	0.92697185	5.91970314	5.78307207
O	4.69372843	5.86942619	5.81938159
O	1.06116066	2.77736522	6.30550912
O	4.82399706	2.85988300	6.42533425
O	2.89750379	8.00125440	6.41533673
Ti	21.87567608	9.21031662	4.85672086
Ti	8.53879577	4.02036895	4.66184731
Ti	23.70946817	3.92832884	4.79226532
Ti	8.61028168	1.12792017	5.57809901
Ti	23.79545797	1.01662814	5.51539167
Ti	21.83952959	6.31746435	5.53552146
Ti	10.51640405	9.22687710	4.78507031
Ti	25.68210920	9.21515323	4.79515926
Ti	14.33597410	9.15134614	4.68043436
Ti	29.48517294	9.22275276	4.76579910
Ti	18.10143173	9.27699868	4.77887524
Ti	12.30354707	4.04278754	4.71069655
Ti	27.60343074	4.04567703	4.77416221
Ti	16.12888844	3.98074238	4.81220087
Ti	19.99826191	3.95881521	4.66931465
Ti	12.47340428	1.22363322	5.69360648
Ti	27.70123648	1.02782535	5.48785146
Ti	16.02145287	1.13243271	5.65859983
Ti	19.95169286	1.07960952	5.50000668
Ti	10.36425668	6.32113610	5.58534799
Ti	25.67925106	6.29095775	5.49831966
Ti	14.25107239	6.26250212	5.52114564
Ti	29.50490835	6.27688528	5.50049659
Ti	18.03794962	6.34866035	5.60424739
O	21.85887196	7.38177662	3.96791161
O	8.53046022	2.13698770	3.98325518
O	23.78260660	2.07200286	3.94049082
O	8.53941114	9.62538093	4.78991449
O	23.77767355	9.62414329	4.98779421
O	21.86128943	4.23637307	4.91537748
O	21.80661949	0.53372168	5.66141316
O	8.50296480	5.81441319	5.71481757
O	23.75877486	5.79484995	5.66441066
O	8.49729450	2.92093474	6.46656587
O	23.77709166	2.79836091	6.36140358
O	21.79490052	8.09593407	6.45265753
O	10.75252120	7.36853248	4.05489546
O	25.48285512	7.45843561	4.00506697
O	14.24964157	7.33322061	3.96160928
O	29.37810004	7.32261644	3.95958600
O	18.04033637	7.35382183	3.94945018
O	12.65623663	2.07714626	3.96319038
O	27.40786511	2.14778968	3.90892080
O	16.02040206	2.16262226	4.00043991
O	19.56415730	2.06344382	3.90682696
O	12.44763802	9.62536743	4.96990709
O	27.61319127	9.64697309	4.68292766
O	16.17926929	9.70444842	4.86048898
O	20.00359622	9.65474653	4.74860840
O	10.43415236	4.54650938	4.64430314
O	25.73407888	4.36410146	4.86417806
O	14.18256016	4.41545417	4.73591927
O	29.48456380	4.41181529	4.92487252
O	18.02369951	4.56155529	4.72048049
O	10.53806604	0.63581335	5.88671508
O	25.81460217	0.55189337	5.83416425
O	14.23557585	1.01331800	6.38527785
O	29.60635179	0.49823388	5.85327960
O	18.07360459	0.58664780	5.72520858
O	12.36626116	5.75218225	5.91675069
O	27.53075426	5.86172131	5.73546027
O	16.14156235	5.69103586	5.91237933
O	19.87737761	5.74591463	5.93480943
O	12.14706754	3.02330650	6.35199990
O	27.86335651	2.72820866	6.46736740
O	16.27789402	2.84721046	6.47059937
O	19.91797722	2.85678750	6.31868924
O	10.36148792	8.03721185	6.41664145
O	25.68028201	8.01934136	6.44360071
O	14.29112319	7.98918125	6.29729923
O	29.52535237	8.07736546	6.44183716
O	18.03977789	8.11163051	6.39075818
Ti	6.54215131	19.69481765	4.76989522
Ti	6.68237099	30.29145795	4.73866853
Ti	6.49680611	16.73704560	5.49656858
Ti	6.77759110	27.36110217	5.51531635
Ti	2.79397952	19.68050346	4.79687590
Ti	2.80924299	30.09026741	4.79623858
Ti	0.74348087	14.32163773	4.72711694
Ti	0.89965810	24.95247501	4.72030153
Ti	4.64932078	14.48582128	4.82910676
Ti	4.84368915	25.10764528	4.71793149
Ti	0.92148257	11.49205764	5.46890284
Ti	0.93899087	22.04058589	5.47500205
Ti	4.61406443	11.51946540	5.54330401
Ti	4.68270568	22.10037997	5.51468105
Ti	2.60650152	16.82674829	5.62455899
Ti	2.83733966	27.29711482	5.45089106
O	6.80782186	17.92682541	3.91680964
O	6.91519154	28.45860721	3.98080378
O	6.51463318	14.83290890	4.81946589
O	6.74529967	25.58542444	4.61881617
O	6.58991293	11.19266113	5.59657329
O	6.58189739	21.69249178	6.05283544
O	6.59560353	18.52274917	6.29388196
O	6.73295095	29.06842882	6.32306704
O	2.71527719	17.77442627	3.91352110
O	2.83254238	28.29196248	3.86718974
O	0.97550999	12.53360217	3.86341282
O	1.03306942	23.13856416	3.96746112
O	4.60430111	12.52756851	3.92236779
O	4.64007139	23.06114733	3.90053548
O	0.88227032	20.10062120	4.98337171
O	1.01220319	30.69106082	4.66082213
O	4.69442300	20.23118524	4.76654997
O	4.72431088	30.53605479	4.82114648
O	2.60282079	14.92099745	4.90387637
O	2.84874984	25.44168260	4.74619655
O	2.71738835	10.89701032	6.02559794
O	2.78906574	21.61536702	5.59688995
O	0.80094057	16.78463578	6.20005869
O	0.93832681	26.65476041	5.79847698
O	4.56246170	16.34298200	5.51498726
O	4.76884766	26.78674639	5.77108359
O	0.55550522	13.25275189	6.30579513
O	0.82342392	23.79533266	6.30985533
O	4.59035619	13.31932804	6.39408663
O	4.77956732	23.92574231	6.32598834
O	3.09744882	18.48875309	6.42050561
O	2.72427556	28.94401679	6.42478532
Ti	21.84834573	19.60421539	4.81254964
Ti	21.87698727	30.17851881	4.71588126
Ti	8.51309555	14.48598577	4.63431372
Ti	8.61060687	24.90099974	4.74685719
Ti	23.79216900	14.42048471	4.77441018
Ti	23.72758161	24.96369007	4.73602566
Ti	8.48228682	11.54892266	5.45873792
Ti	8.52453761	22.00533062	5.49506058
Ti	23.86281375	11.50642200	5.61125764
Ti	23.71760703	22.10795839	5.43763610
Ti	21.90548312	16.74216273	5.54858031
Ti	21.82410483	27.28206272	5.52408050
Ti	10.42296378	19.68177687	4.71252324
Ti	10.54012763	30.30855512	4.82942434
Ti	25.62017040	19.69099832	4.80066236
Ti	25.76725479	30.22582112	4.72069228
Ti	14.25327744	19.64914087	4.79855817
Ti	14.23264618	30.01610939	4.76419834
Ti	29.45407444	19.78996381	4.71736427
Ti	29.58556461	30.21122138	4.82072392
Ti	18.10894837	19.66400024	4.82149248
Ti	17.91396372	30.20267783	4.80455548
Ti	12.38015634	14.47888702	4.86506271
Ti	12.39107422	24.96614415	4.77391166
Ti	27.61918184	14.50401800	4.79589684
Ti	27.54581776	25.00582301	4.74554594
Ti	16.14409936	14.45532295	4.62179818
Ti	16.20956476	24.88877399	4.66629948
Ti	20.00470517	14.43242505	4.71638096
Ti	19.99850076	24.92982545	4.69936095
Ti	12.41203213	11.57026808	5.41881151
Ti	12.21829404	22.00455846	5.36802561
Ti	27.62655967	11.57667863	5.44867437
Ti	27.51112162	22.09251090	5.44572757
Ti	16.14717711	11.58401293	5.44102927
Ti	16.05871666	21.98654720	5.37551890
Ti	20.12527750	11.57390878	5.46413506
Ti	19.99480315	22.03755467	5.49386323
Ti	10.46117381	16.77003911	5.41813187
Ti	10.55671672	27.34222085	5.55086361
Ti	25.68645291	16.77906149	5.43920934
Ti	25.62210333	27.31925702	5.51462559
Ti	14.27879354	16.72851772	5.71223566
Ti	14.28463085	27.11363502	5.53433806
Ti	29.45787845	16.91059633	5.55842080
Ti	29.57817558	27.26834945	5.47264555
Ti	18.19495508	16.74047743	5.43570808
Ti	18.00200751	27.24828144	5.44615947
O	21.90005660	17.77698985	3.90214752
O	21.70492797	28.22511195	3.90583259
O	8.54065467	12.52909576	3.84979967
O	8.57860278	23.06475432	3.93030916
O	23.89465046	12.57770109	3.94092460
O	23.56917007	23.00329130	3.84605949
O	8.46137054	20.15128909	4.81106218
O	8.60588152	30.74796976	4.73426707
O	23.79099739	20.11394671	4.67615981
O	23.81604789	30.59579981	4.93058453
O	21.93444543	14.94256091	4.68855597
O	21.90995503	25.38051504	4.79936034
O	21.97197652	10.88915002	6.02490657
O	21.80703437	21.41067766	5.68763237
O	8.52351299	16.28370461	5.51470994
O	8.69489462	26.72570061	5.90726498
O	23.87230828	16.23102998	5.77774470
O	23.72053835	26.70672310	5.83488657
O	8.48361847	13.32771657	6.20455805
O	8.73401174	23.84445165	6.36659491
O	23.66830797	13.18519010	6.37165272
O	23.41222350	23.72263916	6.27347942
O	21.86363194	18.41937793	6.37776486
O	21.83111760	29.04189073	6.37468646
O	10.46808923	17.76457069	3.89078553
O	10.47212918	28.47851822	4.00145252
O	25.77913292	17.89801380	3.90514267
O	25.64360982	28.31809971	3.88145218
O	14.46110479	17.76205795	3.97172257
O	14.20563561	28.22610673	3.97547901
O	29.30885787	17.86996527	3.92933587
O	29.75055709	28.33180991	3.91307028
O	18.12974806	17.78018847	3.88576741
O	17.97911241	28.38718042	3.90763332
O	12.17685166	12.68533334	3.97116074
O	12.28292555	23.17714595	3.87841707
O	27.71595045	12.63857741	3.85645887
O	27.64213340	23.10903206	3.94193947
O	16.10251606	12.60613673	3.89922918
O	16.20804457	23.03166831	3.84302271
O	19.89684119	12.64065339	3.90989195
O	19.91677353	23.03793218	3.96480634
O	12.27814374	20.11928523	4.73983574
O	12.57245556	30.87217445	4.87846620
O	27.50186369	20.23660301	4.60266104
O	27.65483763	30.64549937	4.73171991
O	16.22123561	20.08214808	4.73080152
O	15.97736586	30.74034046	4.91608773
O	19.99750275	20.03600343	4.83564999
O	19.91588951	30.55979953	4.76607534
O	10.39289170	14.80112338	4.83498514
O	10.53134076	25.47524285	4.72434731
O	25.71533601	14.89427660	4.64451079
O	25.65853547	25.38406871	4.65316386
O	14.29719240	14.94451663	4.75808714
O	14.26760676	25.37891770	4.66234059
O	29.54217049	15.10103681	4.79225573
O	29.44279520	25.45962883	4.60168786
O	18.07278534	14.84718392	4.85091503
O	18.15209774	25.24955357	4.81676459
O	10.38867859	11.26535144	5.62929622
O	10.37441052	21.45892015	5.66048309
O	25.78571363	10.95703139	5.82069873
O	25.54563115	21.53481936	5.76849917
O	14.28208075	11.04305753	5.66908534
O	14.16981116	21.44735180	5.78330235
O	29.49487296	10.99386852	5.88034240
O	29.35864108	21.64190393	5.71535314
O	18.11423602	11.12522183	5.79221178
O	17.96607384	21.55416161	5.64046936
O	12.39359636	16.38857805	5.49161517
O	12.36329958	26.72249368	5.93224921
O	27.53815398	16.23184439	5.92164193
O	27.58448898	26.90345037	5.61878324
O	16.25420007	16.28403669	5.63228046
O	16.15483825	26.84498770	5.69051252
O	20.03393491	16.30035330	5.61337481
O	20.00968225	26.80313902	5.68584120
O	12.64928097	13.22745561	6.39022741
O	12.13437630	23.68848610	6.37434609
O	27.54132519	13.24741206	6.37639556
O	27.59765735	23.80067508	6.28972860
O	16.25181711	13.24822734	6.37866343
O	16.16518749	23.68798114	6.27333364
O	20.16980326	13.22304393	6.36726223
O	20.21559602	23.75131864	6.32378791
O	10.46798296	18.50596670	6.32474128
O	10.58847305	29.07864814	6.35158969
O	25.64115352	18.52315632	6.42012968
O	25.82150333	29.07633567	6.25389904
O	14.27444698	18.51549577	6.36273704
O	14.19919402	28.85494410	6.57908322
O	29.18809409	18.62348295	6.33085718
O	29.31757653	29.02192038	6.29634588
O	18.10863733	18.42756187	6.32303814
O	17.99277208	28.93798306	6.37206195
H	14.18928899	14.03170893	7.85942358
H	14.08299926	14.97112928	11.33736246
H	14.74945866	18.27659683	8.64445828
O	14.37782047	16.05597648	7.48028271
O	14.22812028	14.33496022	8.79338888
C	14.28451083	15.57290536	8.70181451
C	14.39757527	16.48268112	9.85924651
C	14.32684088	15.99710092	11.15390152
C	14.59619677	17.88050292	9.68383442
N	13.14699941	19.44643452	15.36640955
N	15.62021699	22.10736803	17.31488515
N	15.85265175	20.35382469	14.90711272
N	13.00586445	21.18046362	17.91064991
C	21.30650652	21.81565457	17.06158413
C	14.10859514	25.26600299	22.13819621
C	7.38668116	20.00009673	17.03029053
C	19.10845586	21.82090605	16.00188344
C	13.94152627	24.21737139	19.96683648
C	9.76349532	19.38286738	17.15851894
C	20.99368041	22.96306069	14.98100607
C	13.28191305	26.55575938	20.32606283
C	8.10320234	18.19506520	18.49616059
C	14.51928572	19.05618910	13.31172159
C	17.67665620	21.55306971	15.98233590
C	14.14487865	23.07099626	18.98626903
C	11.23761058	19.70895510	16.92044505
C	15.71049034	19.64003002	13.71023818
C	17.11026772	20.70395670	15.01475461
C	13.05546963	22.18089663	18.82583254
C	11.75841816	20.59823914	17.87297349
C	16.98809557	19.57528150	13.04138662
C	17.88069520	20.13947802	13.90133904
C	11.78361510	22.26212822	19.47963009
C	10.95763646	21.32997235	18.87592807
C	13.33004491	18.97686278	14.05789017
C	16.95028906	22.27455555	16.97061139
C	15.39132709	22.93759291	18.37953049
C	11.79608559	19.32649418	15.68067919
C	12.07416424	18.42222926	13.60475490
C	17.57603359	23.26501314	17.85574431
C	16.57149445	23.74983778	18.64054685
C	11.15067174	18.66024753	14.55132914
H	11.84696458	17.79835551	12.70941107
H	18.63223482	23.48640727	17.76179420
H	16.59020173	24.41250746	19.51223668
H	10.11328701	18.24069005	14.58809668
H	17.10206265	19.20233770	12.03940343
H	18.91402555	20.34606934	13.65571225
H	11.48738754	22.93147775	20.34078104
H	9.89360486	21.05555182	19.15829914
H	21.31925235	23.55306218	14.13030742
H	12.86741250	27.57471813	19.99047205
H	7.83129829	17.38160585	19.22740398
H	21.91332008	21.33522359	17.88676048
H	14.45782976	25.20859811	23.22660940
H	6.61049920	20.74108869	16.76045473
H	15.06995788	20.55816485	15.49888918
H	13.79349759	20.97936619	17.27238147
C	23.32385174	22.93577905	16.00334217
H	23.52860399	23.61160891	16.78280882
H	23.53168602	23.41728477	15.02423282
H	24.00882330	22.04463310	16.12433679
C	19.45739689	20.46270659	18.11044825
H	18.99760343	20.98628102	19.03155489
H	20.25600192	19.81745984	18.51255643
H	18.75643292	19.72993867	17.64480953
C	18.72974840	23.18981731	14.00846216
H	19.12073857	24.03184290	13.49083905
H	17.83779920	23.56177465	14.53846692
H	18.44206338	22.41802217	13.28700622
C	10.56886350	17.58745993	18.67082203
H	10.24206896	16.94177158	19.46866715
H	11.47325960	18.15298455	18.89935004
H	10.90683693	16.89580537	17.89980890
C	8.94011759	21.46505791	15.77039854
H	9.28855684	22.38621983	16.28387372
H	8.04982974	21.73265924	15.22475206
H	9.75246942	21.45006993	15.04924338
C	5.67492920	18.60168625	18.32770366
H	5.05303302	19.50607372	18.43833579
H	5.72243873	18.00630142	19.29192527
H	5.29355847	17.94118812	17.56156754
C	13.13852848	25.66316296	18.03504147
H	12.18146527	25.13500733	17.74259704
H	13.97215930	25.30065970	17.36895800
H	13.02899139	26.72261842	17.92706490
C	14.68330246	22.74864586	21.90907033
H	13.84352177	22.46449931	22.50328649
H	15.55243785	22.78351863	22.50741264
H	14.72993682	21.99493408	21.08469721
C	13.62345523	27.67360341	22.61540440
H	14.09168687	27.37080382	23.53434238
H	12.62506024	28.00804707	22.89402278
H	14.15827817	28.57483462	22.29901664
C	21.83585185	22.57852584	16.02441974
C	19.95659779	21.45414957	17.05888364
C	19.67394683	22.65368741	14.98591468
C	13.46166531	25.43593722	19.49197534
C	14.24017778	24.08968840	21.32633837
C	13.60137077	26.45586229	21.70174849
C	9.44390351	18.39306718	18.10113242
C	8.74667548	20.27900097	16.65435314
C	7.06119124	18.98305764	17.94068277
H	14.39970944	16.32355085	13.23910528
H	14.85718730	19.81189467	10.65352041
C	14.48392964	18.22928902	12.11961158
C	14.39199495	16.83911998	12.24585599
C	14.64049921	18.71773804	10.77315871

Ti O H C N 0
6-31G*
****

