%chk=f00014290.chk
%mem=24GB
%nproc=12
#p b3lyp/6-31G*

title

0 1
Ti	2.81187400	0.19704000	1.10336000
Ti	0.90594400	5.44057000	1.10336000
Ti	4.71781400	5.44057000	1.10336000
Ti	0.90594400	2.47241000	1.99114000
Ti	4.71781400	2.47241000	1.99114000
Ti	2.81187400	7.71594000	1.99115000
O	2.81187400	8.81302000	0.37332000
O	0.90594400	3.56949000	0.37332000
O	4.71781400	3.56949000	0.37332000
O	0.90594400	0.60134000	1.26110000
O	4.71781400	0.60134000	1.26110000
O	2.81187400	5.84486000	1.26111000
O	2.81187400	2.06812000	1.83340000
O	0.90594400	7.31164000	1.83340000
O	4.71781400	7.31164000	1.83340000
O	0.90594400	4.34349000	2.72118000
O	4.71781400	4.34349000	2.72118000
O	2.81187400	9.58701000	2.72118000
Ti	6.62374588	0.19704000	1.10336000
Ti	21.87123776	0.19704000	1.10336000
Ti	8.52968588	5.44057000	1.10336000
Ti	23.77717776	5.44057000	1.10336000
Ti	8.52968588	2.47241000	1.99114000
Ti	23.77717776	2.47241000	1.99114000
Ti	6.62374588	7.71594000	1.99115000
Ti	21.87123776	7.71594000	1.99115000
Ti	10.43561588	0.19704000	1.10336000
Ti	25.68310776	0.19704000	1.10336000
Ti	14.24749588	0.19704000	1.10336000
Ti	29.49498776	0.19704000	1.10336000
Ti	18.05936588	0.19704000	1.10336000
Ti	12.34155588	5.44057000	1.10336000
Ti	27.58904776	5.44057000	1.10336000
Ti	16.15343588	5.44057000	1.10336000
Ti	19.96530588	5.44057000	1.10336000
Ti	12.34155588	2.47241000	1.99114000
Ti	27.58904776	2.47241000	1.99114000
Ti	16.15343588	2.47241000	1.99114000
Ti	19.96530588	2.47241000	1.99114000
Ti	10.43561588	7.71594000	1.99115000
Ti	25.68310776	7.71594000	1.99115000
Ti	14.24749588	7.71594000	1.99115000
Ti	29.49498776	7.71594000	1.99115000
Ti	18.05936588	7.71594000	1.99115000
O	6.62374588	8.81302000	0.37332000
O	21.87123776	8.81302000	0.37332000
O	8.52968588	3.56949000	0.37332000
O	23.77717776	3.56949000	0.37332000
O	8.52968588	0.60134000	1.26110000
O	23.77717776	0.60134000	1.26110000
O	6.62374588	5.84486000	1.26111000
O	21.87123776	5.84486000	1.26111000
O	6.62374588	2.06812000	1.83340000
O	21.87123776	2.06812000	1.83340000
O	8.52968588	7.31164000	1.83340000
O	23.77717776	7.31164000	1.83340000
O	8.52968588	4.34349000	2.72118000
O	23.77717776	4.34349000	2.72118000
O	6.62374588	9.58701000	2.72118000
O	21.87123776	9.58701000	2.72118000
O	10.43561588	8.81302000	0.37332000
O	25.68310776	8.81302000	0.37332000
O	14.24749588	8.81302000	0.37332000
O	29.49498776	8.81302000	0.37332000
O	18.05936588	8.81302000	0.37332000
O	12.34155588	3.56949000	0.37332000
O	27.58904776	3.56949000	0.37332000
O	16.15343588	3.56949000	0.37332000
O	19.96530588	3.56949000	0.37332000
O	12.34155588	0.60134000	1.26110000
O	27.58904776	0.60134000	1.26110000
O	16.15343588	0.60134000	1.26110000
O	19.96530588	0.60134000	1.26110000
O	10.43561588	5.84486000	1.26111000
O	25.68310776	5.84486000	1.26111000
O	14.24749588	5.84486000	1.26111000
O	29.49498776	5.84486000	1.26111000
O	18.05936588	5.84486000	1.26111000
O	10.43561588	2.06812000	1.83340000
O	25.68310776	2.06812000	1.83340000
O	14.24749588	2.06812000	1.83340000
O	29.49498776	2.06812000	1.83340000
O	18.05936588	2.06812000	1.83340000
O	12.34155588	7.31164000	1.83340000
O	27.58904776	7.31164000	1.83340000
O	16.15343588	7.31164000	1.83340000
O	19.96530588	7.31164000	1.83340000
O	12.34155588	4.34349000	2.72118000
O	27.58904776	4.34349000	2.72118000
O	16.15343588	4.34349000	2.72118000
O	19.96530588	4.34349000	2.72118000
O	10.43561588	9.58701000	2.72118000
O	25.68310776	9.58701000	2.72118000
O	14.24749588	9.58701000	2.72118000
O	29.49498776	9.58701000	2.72118000
O	18.05936588	9.58701000	2.72118000
Ti	2.81187400	10.68408607	1.10336000
Ti	2.81187400	21.17113214	1.10336000
Ti	0.90594400	15.92761607	1.10336000
Ti	0.90594400	26.41466214	1.10336000
Ti	4.71781400	15.92761607	1.10336000
Ti	4.71781400	26.41466214	1.10336000
Ti	0.90594400	12.95945607	1.99114000
Ti	0.90594400	23.44650214	1.99114000
Ti	4.71781400	12.95945607	1.99114000
Ti	4.71781400	23.44650214	1.99114000
Ti	2.81187400	18.20298607	1.99115000
Ti	2.81187400	28.69003214	1.99115000
O	2.81187400	19.30006607	0.37332000
O	2.81187400	29.78711214	0.37332000
O	0.90594400	14.05653607	0.37332000
O	0.90594400	24.54358214	0.37332000
O	4.71781400	14.05653607	0.37332000
O	4.71781400	24.54358214	0.37332000
O	0.90594400	11.08838607	1.26110000
O	0.90594400	21.57543214	1.26110000
O	4.71781400	11.08838607	1.26110000
O	4.71781400	21.57543214	1.26110000
O	2.81187400	16.33190607	1.26111000
O	2.81187400	26.81895214	1.26111000
O	2.81187400	12.55516607	1.83340000
O	2.81187400	23.04221214	1.83340000
O	0.90594400	17.79868607	1.83340000
O	0.90594400	28.28573214	1.83340000
O	4.71781400	17.79868607	1.83340000
O	4.71781400	28.28573214	1.83340000
O	0.90594400	14.83053607	2.72118000
O	0.90594400	25.31758214	2.72118000
O	4.71781400	14.83053607	2.72118000
O	4.71781400	25.31758214	2.72118000
O	2.81187400	20.07405607	2.72118000
O	2.81187400	30.56110214	2.72118000
Ti	6.62374588	10.68408607	1.10336000
Ti	6.62374588	21.17113214	1.10336000
Ti	21.87123776	10.68408607	1.10336000
Ti	21.87123776	21.17113214	1.10336000
Ti	8.52968588	15.92761607	1.10336000
Ti	8.52968588	26.41466214	1.10336000
Ti	23.77717776	15.92761607	1.10336000
Ti	23.77717776	26.41466214	1.10336000
Ti	8.52968588	12.95945607	1.99114000
Ti	8.52968588	23.44650214	1.99114000
Ti	23.77717776	12.95945607	1.99114000
Ti	23.77717776	23.44650214	1.99114000
Ti	6.62374588	18.20298607	1.99115000
Ti	6.62374588	28.69003214	1.99115000
Ti	21.87123776	18.20298607	1.99115000
Ti	21.87123776	28.69003214	1.99115000
Ti	10.43561588	10.68408607	1.10336000
Ti	10.43561588	21.17113214	1.10336000
Ti	25.68310776	10.68408607	1.10336000
Ti	25.68310776	21.17113214	1.10336000
Ti	14.24749588	10.68408607	1.10336000
Ti	14.24749588	21.17113214	1.10336000
Ti	29.49498776	10.68408607	1.10336000
Ti	29.49498776	21.17113214	1.10336000
Ti	18.05936588	10.68408607	1.10336000
Ti	18.05936588	21.17113214	1.10336000
Ti	12.34155588	15.92761607	1.10336000
Ti	12.34155588	26.41466214	1.10336000
Ti	27.58904776	15.92761607	1.10336000
Ti	27.58904776	26.41466214	1.10336000
Ti	16.15343588	15.92761607	1.10336000
Ti	16.15343588	26.41466214	1.10336000
Ti	19.96530588	15.92761607	1.10336000
Ti	19.96530588	26.41466214	1.10336000
Ti	12.34155588	12.95945607	1.99114000
Ti	12.34155588	23.44650214	1.99114000
Ti	27.58904776	12.95945607	1.99114000
Ti	27.58904776	23.44650214	1.99114000
Ti	16.15343588	12.95945607	1.99114000
Ti	16.15343588	23.44650214	1.99114000
Ti	19.96530588	12.95945607	1.99114000
Ti	19.96530588	23.44650214	1.99114000
Ti	10.43561588	18.20298607	1.99115000
Ti	10.43561588	28.69003214	1.99115000
Ti	25.68310776	18.20298607	1.99115000
Ti	25.68310776	28.69003214	1.99115000
Ti	14.24749588	18.20298607	1.99115000
Ti	14.24749588	28.69003214	1.99115000
Ti	29.49498776	18.20298607	1.99115000
Ti	29.49498776	28.69003214	1.99115000
Ti	18.05936588	18.20298607	1.99115000
Ti	18.05936588	28.69003214	1.99115000
O	6.62374588	19.30006607	0.37332000
O	6.62374588	29.78711214	0.37332000
O	21.87123776	19.30006607	0.37332000
O	21.87123776	29.78711214	0.37332000
O	8.52968588	14.05653607	0.37332000
O	8.52968588	24.54358214	0.37332000
O	23.77717776	14.05653607	0.37332000
O	23.77717776	24.54358214	0.37332000
O	8.52968588	11.08838607	1.26110000
O	8.52968588	21.57543214	1.26110000
O	23.77717776	11.08838607	1.26110000
O	23.77717776	21.57543214	1.26110000
O	6.62374588	16.33190607	1.26111000
O	6.62374588	26.81895214	1.26111000
O	21.87123776	16.33190607	1.26111000
O	21.87123776	26.81895214	1.26111000
O	6.62374588	12.55516607	1.83340000
O	6.62374588	23.04221214	1.83340000
O	21.87123776	12.55516607	1.83340000
O	21.87123776	23.04221214	1.83340000
O	8.52968588	17.79868607	1.83340000
O	8.52968588	28.28573214	1.83340000
O	23.77717776	17.79868607	1.83340000
O	23.77717776	28.28573214	1.83340000
O	8.52968588	14.83053607	2.72118000
O	8.52968588	25.31758214	2.72118000
O	23.77717776	14.83053607	2.72118000
O	23.77717776	25.31758214	2.72118000
O	6.62374588	20.07405607	2.72118000
O	6.62374588	30.56110214	2.72118000
O	21.87123776	20.07405607	2.72118000
O	21.87123776	30.56110214	2.72118000
O	10.43561588	19.30006607	0.37332000
O	10.43561588	29.78711214	0.37332000
O	25.68310776	19.30006607	0.37332000
O	25.68310776	29.78711214	0.37332000
O	14.24749588	19.30006607	0.37332000
O	14.24749588	29.78711214	0.37332000
O	29.49498776	19.30006607	0.37332000
O	29.49498776	29.78711214	0.37332000
O	18.05936588	19.30006607	0.37332000
O	18.05936588	29.78711214	0.37332000
O	12.34155588	14.05653607	0.37332000
O	12.34155588	24.54358214	0.37332000
O	27.58904776	14.05653607	0.37332000
O	27.58904776	24.54358214	0.37332000
O	16.15343588	14.05653607	0.37332000
O	16.15343588	24.54358214	0.37332000
O	19.96530588	14.05653607	0.37332000
O	19.96530588	24.54358214	0.37332000
O	12.34155588	11.08838607	1.26110000
O	12.34155588	21.57543214	1.26110000
O	27.58904776	11.08838607	1.26110000
O	27.58904776	21.57543214	1.26110000
O	16.15343588	11.08838607	1.26110000
O	16.15343588	21.57543214	1.26110000
O	19.96530588	11.08838607	1.26110000
O	19.96530588	21.57543214	1.26110000
O	10.43561588	16.33190607	1.26111000
O	10.43561588	26.81895214	1.26111000
O	25.68310776	16.33190607	1.26111000
O	25.68310776	26.81895214	1.26111000
O	14.24749588	16.33190607	1.26111000
O	14.24749588	26.81895214	1.26111000
O	29.49498776	16.33190607	1.26111000
O	29.49498776	26.81895214	1.26111000
O	18.05936588	16.33190607	1.26111000
O	18.05936588	26.81895214	1.26111000
O	10.43561588	12.55516607	1.83340000
O	10.43561588	23.04221214	1.83340000
O	25.68310776	12.55516607	1.83340000
O	25.68310776	23.04221214	1.83340000
O	14.24749588	12.55516607	1.83340000
O	14.24749588	23.04221214	1.83340000
O	29.49498776	12.55516607	1.83340000
O	29.49498776	23.04221214	1.83340000
O	18.05936588	12.55516607	1.83340000
O	18.05936588	23.04221214	1.83340000
O	12.34155588	17.79868607	1.83340000
O	12.34155588	28.28573214	1.83340000
O	27.58904776	17.79868607	1.83340000
O	27.58904776	28.28573214	1.83340000
O	16.15343588	17.79868607	1.83340000
O	16.15343588	28.28573214	1.83340000
O	19.96530588	17.79868607	1.83340000
O	19.96530588	28.28573214	1.83340000
O	12.34155588	14.83053607	2.72118000
O	12.34155588	25.31758214	2.72118000
O	27.58904776	14.83053607	2.72118000
O	27.58904776	25.31758214	2.72118000
O	16.15343588	14.83053607	2.72118000
O	16.15343588	25.31758214	2.72118000
O	19.96530588	14.83053607	2.72118000
O	19.96530588	25.31758214	2.72118000
O	10.43561588	20.07405607	2.72118000
O	10.43561588	30.56110214	2.72118000
O	25.68310776	20.07405607	2.72118000
O	25.68310776	30.56110214	2.72118000
O	14.24749588	20.07405607	2.72118000
O	14.24749588	30.56110214	2.72118000
O	29.49498776	20.07405607	2.72118000
O	29.49498776	30.56110214	2.72118000
O	18.05936588	20.07405607	2.72118000
O	18.05936588	30.56110214	2.72118000
Ti	6.60678869	9.22051780	4.72658016
Ti	6.68463909	6.30516973	5.44152761
Ti	2.82765729	9.21244764	4.80615838
Ti	0.95381403	3.89553109	4.88226924
Ti	4.80645412	3.87476435	4.79389872
Ti	0.87863167	0.97110277	5.53321274
Ti	4.82074740	0.99001001	5.53467947
Ti	2.85485751	6.29876476	5.55590545
O	6.24706722	7.33963006	3.95362872
O	6.68062909	4.40068458	4.75703509
O	6.66132483	0.49013677	5.73560173
O	6.74753582	8.04179437	6.38792789
O	2.86931656	7.25965543	3.98709799
O	0.94203356	2.09790150	4.00712673
O	4.61863823	2.00956168	3.92126787
O	0.94127414	9.68036209	4.91627332
O	4.68947229	9.66005497	4.93201956
O	2.83116534	4.38671662	4.86216857
O	2.87536492	0.52993021	5.66640152
O	0.98949233	5.86393471	5.78112935
O	4.74657662	5.69333674	5.78502874
O	1.05497421	2.73063471	6.40341767
O	4.79254904	2.69786105	6.39663114
O	2.99424750	8.08163660	6.40226596
Ti	21.80033667	9.22226120	4.77175143
Ti	8.52242193	3.91975866	4.72227965
Ti	23.81521746	3.96223756	4.69706504
Ti	8.57971877	1.05439417	5.57265232
Ti	23.76211718	1.07235065	5.39633107
Ti	21.83056460	6.31036195	5.62587850
Ti	10.51610618	9.37698741	4.76809801
Ti	25.58329714	9.20091831	4.67951934
Ti	14.47714073	9.30008343	4.66643855
Ti	29.50840468	9.31630790	4.81702016
Ti	18.13620618	9.17857548	4.74158443
Ti	12.37769226	3.92284532	4.72855340
Ti	27.67048884	3.99369333	4.64720673
Ti	16.13767929	3.96390867	4.84951328
Ti	20.02332596	3.99927963	4.64796507
Ti	12.39966452	0.99923993	5.53099587
Ti	27.68329456	1.15958121	5.52140079
Ti	16.12433647	1.04159745	5.44548768
Ti	20.06387150	1.09067524	5.54858245
Ti	10.46576001	6.38954701	5.50693686
Ti	25.77451021	6.29522376	5.53933460
Ti	14.35750790	6.33852331	5.52402261
Ti	29.57427643	6.23344176	5.46577941
Ti	18.00599748	6.29957796	5.58369906
O	21.78657231	7.38461697	3.94529788
O	8.48750328	1.98166520	3.92944976
O	23.65830432	2.00739997	3.88733019
O	8.53459492	9.79283586	4.61173254
O	23.74317839	9.62505900	4.57529186
O	21.85002446	4.46623997	4.76817691
O	21.90532342	0.47017554	5.81874158
O	8.59350546	5.74226078	5.64395068
O	23.78921895	5.76454661	5.64872946
O	8.48754288	2.82164800	6.37162547
O	23.74742520	2.75224230	6.24274730
O	21.92297445	8.08031691	6.33504319
O	10.56341000	7.23618781	3.92068648
O	25.66432610	7.33896182	3.95975299
O	14.16633984	7.38582963	3.95370358
O	29.44297603	7.28788756	3.87124461
O	18.15544787	7.32328081	3.93855295
O	12.38350134	2.10732140	3.93250632
O	27.53381086	2.13735336	3.98305522
O	16.39611947	2.17388850	3.96406749
O	20.13118045	2.14765359	3.99403204
O	12.48122847	9.64424391	4.81174418
O	27.62827519	9.58980384	4.77080563
O	16.26434215	9.73141795	4.77604196
O	19.90859777	9.64183738	4.93065883
O	10.46404742	4.39977970	4.89728112
O	25.70687428	4.40498025	4.78599051
O	14.24825279	4.30213249	4.94955484
O	29.52165398	4.33150462	4.65759069
O	18.06439114	4.44528398	4.75071972
O	10.52281568	0.37905841	5.96377321
O	25.71445723	0.68250277	5.79741632
O	14.29069739	0.59215056	5.62133699
O	29.53217876	0.53973346	5.79794892
O	18.11454945	0.63142336	5.74818355
O	12.39883263	5.75332364	5.55814689
O	27.64501535	5.69282012	5.85464878
O	16.13987213	5.78364089	5.83953698
O	19.94449236	5.85281102	5.68636816
O	12.28382145	2.81161208	6.34952185
O	27.74117135	2.96133869	6.30275023
O	16.28384875	2.72462131	6.37652499
O	19.99546361	2.81676553	6.35346799
O	10.64606234	8.13045053	6.25846269
O	25.78292902	8.08478112	6.35159800
O	14.57367457	8.05529580	6.46676644
O	29.53227175	7.95616192	6.31623698
O	18.08948387	8.04817304	6.42868245
Ti	6.58588797	19.71403987	4.79563865
Ti	6.65284882	30.15845025	4.64606312
Ti	6.61700404	16.71380986	5.39109158
Ti	6.61636701	27.28106602	5.54338484
Ti	2.85840183	19.69110487	4.65578264
Ti	2.88840028	30.22915762	4.68271577
Ti	0.76591053	14.37534113	4.71193021
Ti	0.84711749	24.93366186	4.86194450
Ti	4.64264452	14.45039429	4.67885991
Ti	4.61450789	24.89851146	4.64857284
Ti	0.88228710	11.49402379	5.57546513
Ti	0.91552163	21.93296568	5.41707735
Ti	4.69758039	11.61449841	5.63865196
Ti	4.67256126	22.03278590	5.58804283
Ti	2.84881964	16.83617751	5.54131236
Ti	2.77666627	27.26666783	5.41401596
O	6.55111102	17.96238918	3.97867307
O	6.70935235	28.30092416	3.97327649
O	6.57058319	14.82783918	4.77756337
O	6.60644790	25.28792668	4.83034329
O	6.61071244	11.07080900	5.83943610
O	6.54812495	21.51767155	5.72166088
O	6.86339448	18.43205394	6.34890226
O	6.71464945	28.93401478	6.42890946
O	2.80299932	17.82449809	3.90844011
O	2.91558428	28.30450448	3.86325931
O	0.78841615	12.42650809	3.91952982
O	0.90608873	23.03821846	3.88397776
O	4.71456813	12.56885355	3.97819693
O	4.65925989	23.00129550	3.97099923
O	0.87941204	20.07237490	4.58057196
O	0.91602649	30.56305331	4.71108633
O	4.73226626	20.12952240	4.82461354
O	4.78247313	30.50077311	4.83578838
O	2.73743792	14.87389026	4.90531002
O	2.80739388	25.26226842	4.82640703
O	2.84597204	11.12368579	5.93737211
O	2.72743126	21.51930451	5.73891094
O	0.88333344	16.44889285	5.69194901
O	0.90344061	26.79422785	5.62862180
O	4.77118193	16.28503282	5.73928825
O	4.67694968	26.72748580	5.58645503
O	0.83380944	13.20814033	6.37918146
O	0.65109466	23.76813277	6.35629219
O	4.62918282	13.36903421	6.43802156
O	4.57460170	23.72884595	6.46843540
O	2.99363821	18.52643590	6.25796318
O	2.69618591	28.99607029	6.28065970
Ti	21.79626151	19.66714919	4.72055114
Ti	21.83282926	30.18056270	4.86053761
Ti	8.53150523	14.47524850	4.76784796
Ti	8.51738868	24.80685360	4.71085983
Ti	23.70318478	14.39068074	4.83031580
Ti	23.78180016	24.94065628	4.59983013
Ti	8.49279635	11.62217431	5.52404335
Ti	8.56937745	21.92218877	5.55344080
Ti	23.72056168	11.49338979	5.47722371
Ti	23.80427395	22.09440793	5.50160034
Ti	21.81584200	16.77246660	5.55974741
Ti	21.84072308	27.21698062	5.56530869
Ti	10.42661248	19.64519059	4.67455155
Ti	10.42983218	30.22150534	4.81403104
Ti	25.58557502	19.70653749	4.72204191
Ti	25.70210145	30.26378149	4.71714069
Ti	14.20512449	19.59776907	4.76947525
Ti	14.36230496	30.18634650	4.70488214
Ti	29.36726474	19.71119476	4.67569575
Ti	29.52923701	30.19673065	4.74578057
Ti	18.06583714	19.75130107	4.79800762
Ti	18.06668241	30.15793974	4.69253029
Ti	12.25032869	14.45331964	4.74866906
Ti	12.30214018	24.97985583	4.71295397
Ti	27.52417975	14.44265806	4.84158541
Ti	27.49655366	24.97021807	4.84891206
Ti	16.08588214	14.53750330	4.76809920
Ti	16.12978924	24.92989495	4.69987841
Ti	19.99546390	14.44272583	4.88457806
Ti	19.98722973	24.91701694	4.83519295
Ti	12.37034641	11.59642381	5.59288636
Ti	12.31123067	21.97731249	5.48606003
Ti	27.50795997	11.49254360	5.42883858
Ti	27.55836941	22.04455348	5.38916859
Ti	16.19571247	11.70372627	5.52848238
Ti	16.04956304	22.02304877	5.40038568
Ti	19.84552683	11.57657600	5.61223677
Ti	19.94211789	21.99345655	5.47788789
Ti	10.41547477	16.77326919	5.55400343
Ti	10.38989744	27.27891723	5.30384413
Ti	25.62948214	16.77731783	5.56891611
Ti	25.66877801	27.37570858	5.50974296
Ti	14.18953066	16.75783232	5.67707141
Ti	14.24340753	27.27995654	5.53018494
Ti	29.41553541	16.70537011	5.49116658
Ti	29.48267387	27.26629762	5.44058142
Ti	18.08211809	16.76555481	5.40229969
Ti	18.10941371	27.27011279	5.52288166
O	21.81778411	17.82127409	3.94304122
O	21.89585102	28.34446395	4.04897628
O	8.49544767	12.54629087	3.95904026
O	8.40170876	23.03835731	3.97027194
O	23.53335253	12.61386127	3.97915788
O	23.76819259	23.05663271	3.85089978
O	8.50268218	20.15682708	4.71540051
O	8.50388186	30.49443725	4.85991147
O	23.70350337	20.16562980	4.97761409
O	23.73991917	30.63912750	4.73397373
O	21.86826865	14.99742228	4.91856695
O	21.84304563	25.41344599	4.76913645
O	21.85766311	10.97208632	5.90203962
O	21.88923319	21.64831422	5.69648044
O	8.50812514	16.24077402	5.74128078
O	8.55476334	26.67639650	5.86836108
O	23.81074379	16.16982673	5.87654185
O	23.78823690	26.82813458	5.78805193
O	8.36158519	13.31747879	6.35373802
O	8.65878785	23.75033327	6.28457270
O	23.90465358	13.28192864	6.31344917
O	23.89120866	23.77585141	6.33207651
O	21.81166690	18.61198342	6.31970294
O	21.96845457	29.03993041	6.47374962
O	10.32626634	17.75968874	3.94893531
O	10.31461654	28.43105830	3.91125403
O	25.48935339	17.80169447	3.88091019
O	25.85223451	28.41459330	3.84531838
O	14.40800801	17.80182770	3.96182547
O	14.30069753	28.32839828	3.93595818
O	29.42075063	17.76677966	3.93514821
O	29.62854484	28.21933872	3.92107336
O	18.37374994	17.92353405	3.93690163
O	18.19301967	28.21739258	3.87275200
O	12.51033435	12.60881147	4.00943312
O	12.25625972	23.06526801	3.96844226
O	27.17730399	12.59550757	3.90404868
O	27.48365292	23.11008919	3.91774645
O	16.14907219	12.63628144	3.96241237
O	16.03102059	23.05671385	3.84818008
O	20.09518186	12.67354455	4.08415969
O	19.89564481	23.09922074	3.92389631
O	12.35060821	20.15196486	4.73063008
O	12.43358772	30.57242842	4.61959147
O	27.50911155	20.16986719	4.59439233
O	27.62331285	30.80332002	4.67357970
O	16.13077574	20.12568957	4.82166077
O	16.21020231	30.68959375	4.63945919
O	19.99512065	20.17764527	4.79442814
O	19.97908817	30.59386356	4.84188108
O	10.37960238	14.86886683	4.95635144
O	10.40581393	25.37147661	4.86622338
O	25.50895801	14.97370397	4.72811205
O	25.70850282	25.48293065	4.75818800
O	14.17844381	14.98749623	4.89266715
O	14.22097419	25.38604929	4.74852153
O	29.35978188	14.87051179	4.67012233
O	29.38963424	25.27051149	4.97759153
O	18.04867270	14.91942068	4.60760049
O	17.99039695	25.22879676	5.01346366
O	10.43890234	11.02461453	5.77116956
O	10.44768455	21.54113628	5.80615988
O	25.66254262	11.03747834	5.78944788
O	25.62378666	21.60727200	5.46913214
O	14.29433232	11.09648041	5.78672965
O	14.20267785	21.58156112	5.81674942
O	29.42196830	11.07138736	5.72121333
O	29.41071107	21.49267328	5.52608408
O	18.03113125	10.98081969	5.88762979
O	18.05025486	21.63043721	5.68363568
O	12.23868500	16.29300199	5.81850561
O	12.35805449	26.86888847	5.40488629
O	27.53504360	16.29884417	5.73935412
O	27.53368578	26.97064048	5.78344390
O	16.19685246	16.39734845	5.59310627
O	16.15872359	26.80255432	5.53860506
O	19.84758521	16.30948263	5.86709365
O	19.90357135	26.69414452	5.81473962
O	12.35203012	13.33740121	6.39461167
O	12.40547549	23.88491874	6.30861321
O	27.56505585	13.26082869	6.41863997
O	27.46435998	23.68385230	6.29962771
O	16.15201392	13.38224849	6.43080001
O	16.19348993	23.61287860	6.39076126
O	19.76787214	13.41042144	6.49300081
O	19.93192814	23.81300366	6.38921307
O	10.38591881	18.52413457	6.42343627
O	10.49777055	28.94644555	6.28447838
O	25.62283339	18.63286673	6.30383928
O	25.64832229	29.14560256	6.29974894
O	14.17980020	18.54863135	6.36375484
O	14.26762252	29.04602811	6.35175563
O	29.49270605	18.54002104	6.28763737
O	29.45175659	29.10427632	6.32498696
O	17.96010342	18.49682946	6.28215032
O	18.01069084	29.03060548	6.38521731
H	16.34280146	15.34430842	7.34083334
H	17.03318031	16.17890111	10.50777351
H	13.13943108	17.57052286	9.32554798
O	14.19883596	16.12030583	7.69524794
O	16.40821724	15.72813512	8.24473561
C	15.26245640	16.21850583	8.53510022
C	15.08810375	16.80345191	9.81678724
C	16.13235424	16.77981103	10.78561182
C	13.90020615	17.48345132	10.08772196
N	13.34687558	19.36924593	15.65477737
N	15.13989808	22.69867813	17.07942167
N	15.59828350	20.95680120	14.61575315
N	12.90349712	20.98264414	17.99170061
C	20.73193828	24.03548939	15.49831942
C	14.22356830	25.11337738	22.38141948
C	8.27660712	17.48296575	18.34383596
C	18.31974736	23.68183497	15.13878920
C	13.60722030	24.09398407	20.21703555
C	10.54470448	18.06942606	17.78760415
C	19.48380802	25.54325111	14.09488924
C	12.49458685	26.12295433	21.01488490
C	10.09056501	16.24032801	19.27147820
C	14.70764463	19.03649445	13.54218345
C	17.01661643	22.89943399	15.43809903
C	13.71771591	23.12822858	19.09130905
C	11.55008776	19.02658665	17.32357801
C	15.64231578	20.05114070	13.63613853
C	16.56564224	21.89286044	14.54232975
C	12.81473720	22.05276443	18.83694936
C	11.84343871	20.13878659	18.14463903
C	16.71225749	20.41877505	12.73380674
C	17.27643767	21.56773701	13.28234602
C	11.63987277	21.84364712	19.65872406
C	11.06020752	20.66239392	19.23322367
C	13.69435551	18.66911275	14.45543315
C	16.33757517	23.32401367	16.56738288
C	14.89237017	23.37888085	18.27835826
C	12.27717346	18.63387483	16.20153018
C	12.82660458	17.55308169	14.27661802
C	16.75312682	24.35287283	17.46266626
C	15.86538642	24.39834923	18.54734090
C	11.93449674	17.51425650	15.28542198
H	12.79382863	16.94809391	13.34269867
H	17.73214530	24.87285600	17.36942607
H	16.00060436	24.96855549	19.51909077
H	11.04853748	16.86684773	15.42891989
H	17.05841230	19.81152668	11.91766047
H	18.16721915	22.08847373	12.91593989
H	11.34062825	22.51551691	20.43210569
H	10.23173410	20.11340082	19.61351312
H	19.47537075	26.37332298	13.38506384
H	11.77558541	26.92799915	20.88193605
H	10.56004312	15.49619799	20.01410098
H	21.61147120	23.46595361	15.77233534
H	14.78239600	25.12896771	23.28283823
H	7.24235573	17.79282775	18.40401640
H	14.92280707	20.90091870	15.38511505
H	13.61241715	20.94082703	17.25234333
C	21.95277393	25.91677538	14.39179800
H	22.63696632	25.99639448	15.24398716
H	21.78090788	26.92416438	13.95963660
H	22.56581792	25.40531418	13.73062040
C	19.58213468	22.14350869	16.65536080
H	19.26025523	21.21235460	16.17958593
H	18.93190805	22.31579288	17.54245918
H	20.53657873	22.04255271	17.10476306
C	17.10974069	25.29573000	13.55336193
H	16.65172480	26.15646305	14.03151056
H	16.21943763	24.64126731	13.44007814
H	17.41864870	25.61818469	12.51530970
C	12.47531142	16.76140047	18.74651126
H	12.92107446	17.53660281	19.37528547
H	12.96743484	16.83587650	17.79498156
H	12.59780438	15.78477034	19.22222894
C	8.75183089	19.48047521	16.87925930
H	7.83617125	19.21046940	16.26505117
H	9.48497805	19.82270808	16.15870771
H	8.43061788	20.35791235	17.53001955
C	7.76344114	15.56181139	19.86324241
H	7.48764711	14.70794158	19.26116226
H	6.85673100	16.08018960	20.18010370
H	8.24365838	15.18536982	20.81577606
C	11.74160728	25.09225897	18.82854010
H	11.55614407	26.17777685	18.54911601
H	10.76178077	24.53753880	18.98840216
H	12.22470120	24.53679576	18.02663998
C	15.24124073	22.96061382	21.69767809
H	15.46382120	22.36272030	20.75629074
H	14.79376548	22.31390304	22.46898839
H	16.16808657	23.29221467	22.21079659
C	13.27911455	27.26715867	23.14401006
H	14.20526588	27.41089141	23.72557758
H	12.52475401	26.94939713	23.93848937
H	12.98989456	28.19772771	22.75134992
C	20.68898563	25.11940682	14.62723215
C	19.55673509	23.32063067	15.73494149
C	18.27498314	24.83386836	14.36064610
C	12.59831200	25.12017489	20.01962737
C	14.35188740	24.06910958	21.42647169
C	13.40358827	26.19921663	22.12122311
C	11.01994175	17.01536048	18.56687500
C	9.18079958	18.35247632	17.69928514
C	8.71581785	16.43239368	19.12750329
H	16.89506387	17.57353264	12.66559896
H	12.81547817	18.55883792	11.53502427
C	14.82491201	18.16246201	12.30075006
C	16.09001592	17.45858836	12.00543774
C	13.80549106	18.13790354	11.34020151

Ti O H C N 0
6-31G*
****

