%chk=f00015907.chk
%mem=24GB
%nproc=12
#p b3lyp/6-31G*

title

0 1
Ti	2.81187400	0.19704000	1.10336000
Ti	0.90594400	5.44057000	1.10336000
Ti	4.71781400	5.44057000	1.10336000
Ti	0.90594400	2.47241000	1.99114000
Ti	4.71781400	2.47241000	1.99114000
Ti	2.81187400	7.71594000	1.99115000
O	2.81187400	8.81302000	0.37332000
O	0.90594400	3.56949000	0.37332000
O	4.71781400	3.56949000	0.37332000
O	0.90594400	0.60134000	1.26110000
O	4.71781400	0.60134000	1.26110000
O	2.81187400	5.84486000	1.26111000
O	2.81187400	2.06812000	1.83340000
O	0.90594400	7.31164000	1.83340000
O	4.71781400	7.31164000	1.83340000
O	0.90594400	4.34349000	2.72118000
O	4.71781400	4.34349000	2.72118000
O	2.81187400	9.58701000	2.72118000
Ti	6.62374588	0.19704000	1.10336000
Ti	21.87123776	0.19704000	1.10336000
Ti	8.52968588	5.44057000	1.10336000
Ti	23.77717776	5.44057000	1.10336000
Ti	8.52968588	2.47241000	1.99114000
Ti	23.77717776	2.47241000	1.99114000
Ti	6.62374588	7.71594000	1.99115000
Ti	21.87123776	7.71594000	1.99115000
Ti	10.43561588	0.19704000	1.10336000
Ti	25.68310776	0.19704000	1.10336000
Ti	14.24749588	0.19704000	1.10336000
Ti	29.49498776	0.19704000	1.10336000
Ti	18.05936588	0.19704000	1.10336000
Ti	12.34155588	5.44057000	1.10336000
Ti	27.58904776	5.44057000	1.10336000
Ti	16.15343588	5.44057000	1.10336000
Ti	19.96530588	5.44057000	1.10336000
Ti	12.34155588	2.47241000	1.99114000
Ti	27.58904776	2.47241000	1.99114000
Ti	16.15343588	2.47241000	1.99114000
Ti	19.96530588	2.47241000	1.99114000
Ti	10.43561588	7.71594000	1.99115000
Ti	25.68310776	7.71594000	1.99115000
Ti	14.24749588	7.71594000	1.99115000
Ti	29.49498776	7.71594000	1.99115000
Ti	18.05936588	7.71594000	1.99115000
O	6.62374588	8.81302000	0.37332000
O	21.87123776	8.81302000	0.37332000
O	8.52968588	3.56949000	0.37332000
O	23.77717776	3.56949000	0.37332000
O	8.52968588	0.60134000	1.26110000
O	23.77717776	0.60134000	1.26110000
O	6.62374588	5.84486000	1.26111000
O	21.87123776	5.84486000	1.26111000
O	6.62374588	2.06812000	1.83340000
O	21.87123776	2.06812000	1.83340000
O	8.52968588	7.31164000	1.83340000
O	23.77717776	7.31164000	1.83340000
O	8.52968588	4.34349000	2.72118000
O	23.77717776	4.34349000	2.72118000
O	6.62374588	9.58701000	2.72118000
O	21.87123776	9.58701000	2.72118000
O	10.43561588	8.81302000	0.37332000
O	25.68310776	8.81302000	0.37332000
O	14.24749588	8.81302000	0.37332000
O	29.49498776	8.81302000	0.37332000
O	18.05936588	8.81302000	0.37332000
O	12.34155588	3.56949000	0.37332000
O	27.58904776	3.56949000	0.37332000
O	16.15343588	3.56949000	0.37332000
O	19.96530588	3.56949000	0.37332000
O	12.34155588	0.60134000	1.26110000
O	27.58904776	0.60134000	1.26110000
O	16.15343588	0.60134000	1.26110000
O	19.96530588	0.60134000	1.26110000
O	10.43561588	5.84486000	1.26111000
O	25.68310776	5.84486000	1.26111000
O	14.24749588	5.84486000	1.26111000
O	29.49498776	5.84486000	1.26111000
O	18.05936588	5.84486000	1.26111000
O	10.43561588	2.06812000	1.83340000
O	25.68310776	2.06812000	1.83340000
O	14.24749588	2.06812000	1.83340000
O	29.49498776	2.06812000	1.83340000
O	18.05936588	2.06812000	1.83340000
O	12.34155588	7.31164000	1.83340000
O	27.58904776	7.31164000	1.83340000
O	16.15343588	7.31164000	1.83340000
O	19.96530588	7.31164000	1.83340000
O	12.34155588	4.34349000	2.72118000
O	27.58904776	4.34349000	2.72118000
O	16.15343588	4.34349000	2.72118000
O	19.96530588	4.34349000	2.72118000
O	10.43561588	9.58701000	2.72118000
O	25.68310776	9.58701000	2.72118000
O	14.24749588	9.58701000	2.72118000
O	29.49498776	9.58701000	2.72118000
O	18.05936588	9.58701000	2.72118000
Ti	2.81187400	10.68408607	1.10336000
Ti	2.81187400	21.17113214	1.10336000
Ti	0.90594400	15.92761607	1.10336000
Ti	0.90594400	26.41466214	1.10336000
Ti	4.71781400	15.92761607	1.10336000
Ti	4.71781400	26.41466214	1.10336000
Ti	0.90594400	12.95945607	1.99114000
Ti	0.90594400	23.44650214	1.99114000
Ti	4.71781400	12.95945607	1.99114000
Ti	4.71781400	23.44650214	1.99114000
Ti	2.81187400	18.20298607	1.99115000
Ti	2.81187400	28.69003214	1.99115000
O	2.81187400	19.30006607	0.37332000
O	2.81187400	29.78711214	0.37332000
O	0.90594400	14.05653607	0.37332000
O	0.90594400	24.54358214	0.37332000
O	4.71781400	14.05653607	0.37332000
O	4.71781400	24.54358214	0.37332000
O	0.90594400	11.08838607	1.26110000
O	0.90594400	21.57543214	1.26110000
O	4.71781400	11.08838607	1.26110000
O	4.71781400	21.57543214	1.26110000
O	2.81187400	16.33190607	1.26111000
O	2.81187400	26.81895214	1.26111000
O	2.81187400	12.55516607	1.83340000
O	2.81187400	23.04221214	1.83340000
O	0.90594400	17.79868607	1.83340000
O	0.90594400	28.28573214	1.83340000
O	4.71781400	17.79868607	1.83340000
O	4.71781400	28.28573214	1.83340000
O	0.90594400	14.83053607	2.72118000
O	0.90594400	25.31758214	2.72118000
O	4.71781400	14.83053607	2.72118000
O	4.71781400	25.31758214	2.72118000
O	2.81187400	20.07405607	2.72118000
O	2.81187400	30.56110214	2.72118000
Ti	6.62374588	10.68408607	1.10336000
Ti	6.62374588	21.17113214	1.10336000
Ti	21.87123776	10.68408607	1.10336000
Ti	21.87123776	21.17113214	1.10336000
Ti	8.52968588	15.92761607	1.10336000
Ti	8.52968588	26.41466214	1.10336000
Ti	23.77717776	15.92761607	1.10336000
Ti	23.77717776	26.41466214	1.10336000
Ti	8.52968588	12.95945607	1.99114000
Ti	8.52968588	23.44650214	1.99114000
Ti	23.77717776	12.95945607	1.99114000
Ti	23.77717776	23.44650214	1.99114000
Ti	6.62374588	18.20298607	1.99115000
Ti	6.62374588	28.69003214	1.99115000
Ti	21.87123776	18.20298607	1.99115000
Ti	21.87123776	28.69003214	1.99115000
Ti	10.43561588	10.68408607	1.10336000
Ti	10.43561588	21.17113214	1.10336000
Ti	25.68310776	10.68408607	1.10336000
Ti	25.68310776	21.17113214	1.10336000
Ti	14.24749588	10.68408607	1.10336000
Ti	14.24749588	21.17113214	1.10336000
Ti	29.49498776	10.68408607	1.10336000
Ti	29.49498776	21.17113214	1.10336000
Ti	18.05936588	10.68408607	1.10336000
Ti	18.05936588	21.17113214	1.10336000
Ti	12.34155588	15.92761607	1.10336000
Ti	12.34155588	26.41466214	1.10336000
Ti	27.58904776	15.92761607	1.10336000
Ti	27.58904776	26.41466214	1.10336000
Ti	16.15343588	15.92761607	1.10336000
Ti	16.15343588	26.41466214	1.10336000
Ti	19.96530588	15.92761607	1.10336000
Ti	19.96530588	26.41466214	1.10336000
Ti	12.34155588	12.95945607	1.99114000
Ti	12.34155588	23.44650214	1.99114000
Ti	27.58904776	12.95945607	1.99114000
Ti	27.58904776	23.44650214	1.99114000
Ti	16.15343588	12.95945607	1.99114000
Ti	16.15343588	23.44650214	1.99114000
Ti	19.96530588	12.95945607	1.99114000
Ti	19.96530588	23.44650214	1.99114000
Ti	10.43561588	18.20298607	1.99115000
Ti	10.43561588	28.69003214	1.99115000
Ti	25.68310776	18.20298607	1.99115000
Ti	25.68310776	28.69003214	1.99115000
Ti	14.24749588	18.20298607	1.99115000
Ti	14.24749588	28.69003214	1.99115000
Ti	29.49498776	18.20298607	1.99115000
Ti	29.49498776	28.69003214	1.99115000
Ti	18.05936588	18.20298607	1.99115000
Ti	18.05936588	28.69003214	1.99115000
O	6.62374588	19.30006607	0.37332000
O	6.62374588	29.78711214	0.37332000
O	21.87123776	19.30006607	0.37332000
O	21.87123776	29.78711214	0.37332000
O	8.52968588	14.05653607	0.37332000
O	8.52968588	24.54358214	0.37332000
O	23.77717776	14.05653607	0.37332000
O	23.77717776	24.54358214	0.37332000
O	8.52968588	11.08838607	1.26110000
O	8.52968588	21.57543214	1.26110000
O	23.77717776	11.08838607	1.26110000
O	23.77717776	21.57543214	1.26110000
O	6.62374588	16.33190607	1.26111000
O	6.62374588	26.81895214	1.26111000
O	21.87123776	16.33190607	1.26111000
O	21.87123776	26.81895214	1.26111000
O	6.62374588	12.55516607	1.83340000
O	6.62374588	23.04221214	1.83340000
O	21.87123776	12.55516607	1.83340000
O	21.87123776	23.04221214	1.83340000
O	8.52968588	17.79868607	1.83340000
O	8.52968588	28.28573214	1.83340000
O	23.77717776	17.79868607	1.83340000
O	23.77717776	28.28573214	1.83340000
O	8.52968588	14.83053607	2.72118000
O	8.52968588	25.31758214	2.72118000
O	23.77717776	14.83053607	2.72118000
O	23.77717776	25.31758214	2.72118000
O	6.62374588	20.07405607	2.72118000
O	6.62374588	30.56110214	2.72118000
O	21.87123776	20.07405607	2.72118000
O	21.87123776	30.56110214	2.72118000
O	10.43561588	19.30006607	0.37332000
O	10.43561588	29.78711214	0.37332000
O	25.68310776	19.30006607	0.37332000
O	25.68310776	29.78711214	0.37332000
O	14.24749588	19.30006607	0.37332000
O	14.24749588	29.78711214	0.37332000
O	29.49498776	19.30006607	0.37332000
O	29.49498776	29.78711214	0.37332000
O	18.05936588	19.30006607	0.37332000
O	18.05936588	29.78711214	0.37332000
O	12.34155588	14.05653607	0.37332000
O	12.34155588	24.54358214	0.37332000
O	27.58904776	14.05653607	0.37332000
O	27.58904776	24.54358214	0.37332000
O	16.15343588	14.05653607	0.37332000
O	16.15343588	24.54358214	0.37332000
O	19.96530588	14.05653607	0.37332000
O	19.96530588	24.54358214	0.37332000
O	12.34155588	11.08838607	1.26110000
O	12.34155588	21.57543214	1.26110000
O	27.58904776	11.08838607	1.26110000
O	27.58904776	21.57543214	1.26110000
O	16.15343588	11.08838607	1.26110000
O	16.15343588	21.57543214	1.26110000
O	19.96530588	11.08838607	1.26110000
O	19.96530588	21.57543214	1.26110000
O	10.43561588	16.33190607	1.26111000
O	10.43561588	26.81895214	1.26111000
O	25.68310776	16.33190607	1.26111000
O	25.68310776	26.81895214	1.26111000
O	14.24749588	16.33190607	1.26111000
O	14.24749588	26.81895214	1.26111000
O	29.49498776	16.33190607	1.26111000
O	29.49498776	26.81895214	1.26111000
O	18.05936588	16.33190607	1.26111000
O	18.05936588	26.81895214	1.26111000
O	10.43561588	12.55516607	1.83340000
O	10.43561588	23.04221214	1.83340000
O	25.68310776	12.55516607	1.83340000
O	25.68310776	23.04221214	1.83340000
O	14.24749588	12.55516607	1.83340000
O	14.24749588	23.04221214	1.83340000
O	29.49498776	12.55516607	1.83340000
O	29.49498776	23.04221214	1.83340000
O	18.05936588	12.55516607	1.83340000
O	18.05936588	23.04221214	1.83340000
O	12.34155588	17.79868607	1.83340000
O	12.34155588	28.28573214	1.83340000
O	27.58904776	17.79868607	1.83340000
O	27.58904776	28.28573214	1.83340000
O	16.15343588	17.79868607	1.83340000
O	16.15343588	28.28573214	1.83340000
O	19.96530588	17.79868607	1.83340000
O	19.96530588	28.28573214	1.83340000
O	12.34155588	14.83053607	2.72118000
O	12.34155588	25.31758214	2.72118000
O	27.58904776	14.83053607	2.72118000
O	27.58904776	25.31758214	2.72118000
O	16.15343588	14.83053607	2.72118000
O	16.15343588	25.31758214	2.72118000
O	19.96530588	14.83053607	2.72118000
O	19.96530588	25.31758214	2.72118000
O	10.43561588	20.07405607	2.72118000
O	10.43561588	30.56110214	2.72118000
O	25.68310776	20.07405607	2.72118000
O	25.68310776	30.56110214	2.72118000
O	14.24749588	20.07405607	2.72118000
O	14.24749588	30.56110214	2.72118000
O	29.49498776	20.07405607	2.72118000
O	29.49498776	30.56110214	2.72118000
O	18.05936588	20.07405607	2.72118000
O	18.05936588	30.56110214	2.72118000
Ti	6.59175043	9.18739214	4.77545122
Ti	6.59850795	6.24274033	5.56077698
Ti	2.78003309	9.18618533	4.89081133
Ti	0.97030476	4.07657320	4.75445404
Ti	4.75259892	4.01940280	4.76470806
Ti	0.91989084	1.14093540	5.59979300
Ti	4.72440925	1.01340304	5.40006144
Ti	2.87293648	6.31448684	5.69409521
O	6.63169455	7.35140651	4.02061549
O	6.63222402	4.43434149	4.68785229
O	6.56820769	0.60033423	5.60475588
O	6.43485218	8.04268615	6.43948346
O	2.95325971	7.28787496	4.00007781
O	0.84552437	2.16143348	3.95958636
O	4.75597589	2.09931511	3.96340895
O	0.86189307	9.71996483	4.66972386
O	4.71932950	9.61959842	4.75533298
O	2.89081618	4.47998567	4.80094655
O	2.81397060	0.53420753	5.84310660
O	0.95626949	5.99223026	5.59918456
O	4.76712632	5.62343773	6.06151873
O	0.83960834	3.01566993	6.33766850
O	4.82406440	2.71725566	6.31895396
O	2.97108278	8.04683002	6.46661346
Ti	21.91010675	9.17325427	4.77535555
Ti	8.46790818	3.95583751	4.87568893
Ti	23.82497973	3.84847396	4.74036767
Ti	8.54079593	1.10129326	5.62862323
Ti	23.63845816	0.94045535	5.53166253
Ti	21.88522753	6.20963113	5.38947578
Ti	10.32648031	9.24240822	4.92707965
Ti	25.77071298	9.08597012	4.77972011
Ti	14.17930660	9.27280691	4.66501389
Ti	29.50236147	9.24690428	4.70523907
Ti	18.11554710	9.21806839	4.73042963
Ti	12.31078188	4.06592641	4.77028704
Ti	27.63493122	3.92981244	4.64913049
Ti	16.07089969	3.91861446	4.80915772
Ti	19.81037500	3.99587916	4.81242420
Ti	12.27532246	1.13771234	5.51410603
Ti	27.52717280	1.07626884	5.55202537
Ti	16.08514866	1.04372662	5.48699980
Ti	19.87208301	1.05502014	5.46703107
Ti	10.39009725	6.31236214	5.46401223
Ti	25.73118816	6.15682167	5.37160690
Ti	14.25282056	6.26592681	5.40878635
Ti	29.54788411	6.35017200	5.43606001
Ti	18.05421652	6.33908427	5.53474647
O	22.14006974	7.34066653	3.92411921
O	8.37061434	2.06243910	3.98141157
O	23.79323179	2.04227893	3.91087672
O	8.47908600	9.69847332	5.07632953
O	23.84569352	9.65141793	4.87392746
O	21.81071244	4.27743897	4.74616251
O	21.77487159	0.54082606	5.95276357
O	8.43842815	5.96562779	5.86414059
O	23.79583835	5.61420308	5.74199710
O	8.36375335	2.83509317	6.41315537
O	23.50041498	2.77313033	6.41006605
O	21.77740349	7.98570039	6.36837018
O	10.32802461	7.36395181	4.00014245
O	25.73197896	7.22776426	3.88179534
O	14.29168250	7.30320202	3.90233820
O	29.47496129	7.42256026	3.93318468
O	17.92199084	7.36140902	3.90177914
O	12.18157229	2.16231508	3.91833399
O	27.49478559	2.06976498	3.91855705
O	16.27623031	2.11721083	3.92616836
O	20.02460038	2.20230015	3.96892823
O	12.26465055	9.68141331	4.63788430
O	27.60442080	9.70139229	4.65236875
O	16.16280175	9.60669346	4.78577868
O	20.03410904	9.50571925	4.80684974
O	10.41380795	4.39589311	4.77067763
O	25.69469397	4.25332665	4.80464395
O	14.21446543	4.37365248	4.78343401
O	29.49488027	4.49271652	4.68310820
O	17.92767379	4.40723454	4.74713410
O	10.49248365	0.61060613	6.01275017
O	25.56464872	0.47469806	5.83526442
O	14.12017422	0.62242041	5.66553669
O	29.45070825	0.51957689	5.71611666
O	18.02982543	0.61808723	5.69629529
O	12.33693468	5.92504290	5.56466708
O	27.64729797	5.69105724	5.67986714
O	16.08750350	5.72591440	5.94141308
O	19.93844209	5.79342265	5.63022011
O	12.31449750	2.91626461	6.35787366
O	27.63000037	2.78350494	6.36740704
O	16.22415319	2.77588076	6.26067079
O	19.80924867	2.79826312	6.30999259
O	10.49622333	7.97631239	6.44537174
O	25.62239193	7.89679095	6.35296671
O	14.42229702	8.09013740	6.21254411
O	29.19502631	8.03040565	6.26255647
O	18.10841419	8.07284649	6.38054503
Ti	6.72283918	19.69040552	4.73314464
Ti	6.64598587	30.21424682	4.77242588
Ti	6.54966255	16.79431519	5.50762102
Ti	6.74972503	27.27582031	5.50813069
Ti	2.86466672	19.71922831	4.73941404
Ti	2.72708837	30.23558962	4.90136962
Ti	0.84566980	14.39620244	4.60224891
Ti	1.04393626	24.93688287	4.82852500
Ti	4.59707874	14.53213177	4.76916294
Ti	4.81893542	24.87810823	4.71367815
Ti	0.79545417	11.54113838	5.44878281
Ti	0.94020354	22.00730087	5.52710705
Ti	4.54510748	11.57246684	5.49428041
Ti	4.82895150	22.00526706	5.51787177
Ti	2.81910935	16.86844923	5.62051354
Ti	2.96313283	27.24919961	5.49173536
O	6.71557933	17.83845187	3.97538297
O	6.65908071	28.30617822	3.90093584
O	6.53003899	14.92892644	4.73587767
O	6.66803015	25.34057658	4.67498164
O	6.54503988	11.07765079	5.73673389
O	6.74564785	21.61968618	5.83835263
O	6.61004237	18.60264299	6.40538139
O	6.56243798	29.06066237	6.26980155
O	2.81213323	17.87251401	3.96029496
O	2.76140277	28.27494673	3.99340558
O	1.03262183	12.58821177	3.87552666
O	0.87496387	23.12454481	3.98919087
O	4.65260820	12.74939209	4.00156292
O	4.71466884	23.06063961	3.93544174
O	0.91933805	20.14394985	5.01916081
O	0.89659318	30.75128588	4.85871388
O	4.80531269	20.23414786	4.58542663
O	4.70699803	30.49231526	4.76846410
O	2.58760176	15.14009720	4.81932663
O	2.91220792	25.34466342	4.73462179
O	2.77782538	10.92623886	5.87091176
O	2.88014431	21.56676916	5.58696774
O	0.94782433	16.79162809	6.25164866
O	0.95069933	26.80601340	5.82132337
O	4.64079526	16.32223073	5.98076056
O	4.82189520	26.72993285	5.72213536
O	1.03097089	13.40548125	6.32468288
O	0.95111900	23.69869258	6.39234635
O	4.69529083	13.31712520	6.35110761
O	4.83131484	23.79395019	6.33222454
O	3.13306361	18.74756766	6.36717390
O	2.67581849	28.99773861	6.47062027
Ti	21.95316013	19.65208834	4.90987695
Ti	21.81403743	30.17705829	4.74574366
Ti	8.46726263	14.52938049	4.81717400
Ti	8.59883765	24.99313571	4.73115141
Ti	23.75334797	14.50491725	4.67979807
Ti	23.73307289	24.94859313	4.79938637
Ti	8.51526139	11.61674871	5.50490693
Ti	8.65936919	22.04769179	5.53877724
Ti	23.83169530	11.56434008	5.44455393
Ti	23.79879740	22.06187166	5.56137314
Ti	21.84002629	16.73285621	5.53800709
Ti	21.83536657	27.26942201	5.55922817
Ti	10.41847469	19.66195005	4.83004689
Ti	10.46583619	30.27937466	4.82081779
Ti	25.70327847	19.73502292	4.81217864
Ti	25.67029707	30.14470526	4.78013268
Ti	14.32703880	19.60971016	4.71749610
Ti	14.20386399	30.15373192	4.72601945
Ti	29.51168058	19.85850935	4.77133509
Ti	29.50695055	30.23353176	4.65449827
Ti	18.17518860	19.57125255	4.79242685
Ti	18.02018183	30.27120508	4.74297327
Ti	12.37074386	14.50777991	4.76602401
Ti	12.31876055	24.98253406	4.74718470
Ti	27.68856364	14.47813772	4.62583261
Ti	27.64898436	24.86489586	4.65870597
Ti	16.09281350	14.38409361	4.77501457
Ti	16.13719379	24.98469522	4.68411392
Ti	19.98585950	14.39760061	4.81558625
Ti	19.91360780	24.84577048	4.94581698
Ti	12.26072441	11.62077989	5.48355320
Ti	12.39016140	22.01930254	5.43869162
Ti	27.66721050	11.55796353	5.45037745
Ti	27.62007528	22.00998450	5.56834821
Ti	16.17001056	11.46867589	5.48312980
Ti	16.24878824	22.09776320	5.52794752
Ti	20.04079103	11.44746672	5.42546902
Ti	19.99152828	22.00260297	5.55411177
Ti	10.38207990	16.74710165	5.47866721
Ti	10.52004849	27.29707947	5.40271740
Ti	25.65993428	16.81326659	5.40313082
Ti	25.76792963	27.22588140	5.44929469
Ti	14.18929189	16.77725080	5.69457904
Ti	14.27347217	27.22162053	5.42621924
Ti	29.58070342	17.00470000	5.63149048
Ti	29.51270230	27.27059766	5.42467902
Ti	18.13369080	16.72791350	5.58978040
Ti	18.01667758	27.23794645	5.45806482
O	21.86248731	17.94264860	3.97622268
O	21.79040772	28.27986196	3.98661914
O	8.45050964	12.60039386	3.94943296
O	8.57443349	22.97126925	3.89637680
O	23.93180622	12.71598181	3.98452124
O	23.77531494	23.10922731	4.00089856
O	8.56403286	20.13270428	4.82285557
O	8.57521156	30.80932733	4.88348896
O	23.83530889	20.09132998	4.98870936
O	23.70980597	30.60349903	4.75225545
O	21.86250401	14.79358582	4.76794705
O	21.81373504	25.38194799	4.94541404
O	21.91385181	11.03775709	5.58099679
O	21.87875435	21.43799481	5.79491077
O	8.44675968	16.37277618	5.64578582
O	8.60725929	26.76545643	5.74459622
O	23.75673290	16.17756438	5.80451375
O	23.78815710	26.90445596	5.63953292
O	8.42847958	13.33308360	6.37177107
O	8.72713261	23.83741727	6.23229899
O	23.84906509	13.33055829	6.42508786
O	23.44753051	23.86272946	6.43335597
O	21.81419534	18.40178956	6.42893652
O	21.94404851	29.09089328	6.32489024
O	10.52421285	17.75784916	3.86521430
O	10.28765880	28.42402184	3.97856321
O	25.52062030	18.03605308	3.93238550
O	25.70122368	28.27345421	3.92695825
O	14.30881154	17.77885623	3.97762083
O	14.28077083	28.32767273	3.87609732
O	29.56961033	17.98744618	3.97455570
O	29.42143856	28.35139073	3.87445874
O	18.05546989	17.78755783	3.94102900
O	18.03990650	28.28217219	3.89997504
O	12.39467477	12.71402741	3.90032485
O	12.44580339	23.12881422	3.95473526
O	27.62495612	12.61984625	3.92018937
O	27.57903493	23.01985616	3.96881867
O	16.24210817	12.56745297	3.88293295
O	16.17883528	23.17580871	3.95065921
O	19.92331238	12.65738506	3.86362614
O	20.01334232	23.04173365	3.99331092
O	12.29571298	20.10834160	4.86560807
O	12.31700806	30.63928501	4.91832516
O	27.63231391	20.21333887	4.62350410
O	27.50953930	30.60131307	4.97414081
O	16.23111373	19.94165954	4.73350049
O	16.14273966	30.66243273	4.86943753
O	20.03659962	20.24002564	4.63197515
O	19.98741273	30.65905152	4.77482713
O	10.43050478	14.82064708	5.06995121
O	10.45366457	25.38130586	4.57323184
O	25.66539057	14.88660877	4.82291319
O	25.77489087	25.25361183	4.94562740
O	14.23787408	14.92830637	4.77082095
O	14.28114657	25.37334088	4.77646735
O	29.50258348	15.12054704	4.78635187
O	29.58810139	25.35352514	4.82997154
O	18.06357768	14.94490603	4.77599678
O	18.07014031	25.32779359	4.96825391
O	10.41746961	11.17248973	5.67119861
O	10.44753647	21.55426128	5.97812524
O	25.76461535	11.09373558	5.64717705
O	25.71678829	21.60544279	5.83577842
O	14.12500588	11.19410255	5.68107776
O	14.33352629	21.64891695	5.57315836
O	29.48931044	11.10756829	5.72287172
O	29.57584194	21.55932248	5.85917391
O	18.19121830	10.95547287	5.81399113
O	18.03792665	21.48196113	5.69216395
O	12.31951281	16.38720169	5.58446519
O	12.33581529	26.79591835	5.58165497
O	27.57073830	16.42649356	5.77411028
O	27.62661205	26.74946965	5.68296304
O	16.25434975	16.17435695	5.86969363
O	16.10706290	26.85978689	5.70320620
O	20.01176292	16.19422520	5.75204976
O	19.89059569	26.74334582	5.97745563
O	12.22621956	13.35968011	6.32575362
O	12.47602392	23.79258849	6.33721751
O	27.67153994	13.38572032	6.33939377
O	27.66064844	23.68906363	6.42515289
O	16.08583397	13.18318535	6.41654052
O	16.09046436	23.91327105	6.40576651
O	20.00785299	13.16508232	6.25030175
O	20.03994006	23.71151804	6.44159164
O	10.61089061	18.53085918	6.47855562
O	10.44069223	29.03150580	6.28239035
O	25.76585423	18.51887943	6.42150836
O	25.66671984	28.90305295	6.39745505
O	14.28613546	18.69681489	6.36163362
O	14.15414046	28.98782279	6.30954789
O	29.27577890	18.70988671	6.46740475
O	29.58177119	29.00910653	6.22068111
O	18.32902550	18.55590971	6.37335918
O	18.04387443	29.03385683	6.30285617
H	13.13065562	14.27509526	7.97660527
H	13.22036196	15.16101471	11.37611134
H	14.24012812	18.63565932	8.84802942
O	14.19192081	16.30136949	7.54986092
O	13.07025785	14.81993525	8.81355274
C	13.63899259	15.96993337	8.69132337
C	13.62719123	16.81299267	9.89042678
C	13.43641711	16.21009507	11.16197537
C	13.94035383	18.18200789	9.77753799
N	12.92502269	19.71097308	15.66606031
N	15.66996973	22.56596991	16.91894539
N	15.33451999	21.04082255	14.32058630
N	13.25698480	21.17760021	18.13495737
C	20.48255944	23.69515312	13.60240433
C	16.29215929	23.39258622	22.79808605
C	7.71225300	18.72008263	18.67984123
C	18.10544331	23.58426164	14.16616248
C	15.14450241	23.33435406	20.63873836
C	10.12069087	18.85511406	18.12529161
C	18.89242062	25.38570478	12.74294148
C	14.54899911	24.98927427	22.33676102
C	9.12106110	16.77388441	19.04561205
C	13.92276555	19.23863808	13.42289537
C	16.95652864	22.86153018	14.78669304
C	14.86850153	22.72036642	19.30525999
C	11.37084101	19.64203272	17.67412206
C	15.14420827	20.02106814	13.42779643
C	16.42151841	21.76822874	14.01124539
C	13.66932789	21.97745806	19.17647183
C	12.18249393	20.42994186	18.49654087
C	16.18356053	20.06512475	12.46818947
C	16.96974023	21.16457132	12.79412781
C	12.82550362	21.63510149	20.31071374
C	11.91487247	20.72441321	19.90085116
C	12.89016116	19.18497419	14.36951174
C	16.67515681	23.14515530	16.18917602
C	15.82679069	22.93759354	18.24523680
C	11.69742169	19.42525263	16.30706305
C	11.59483199	18.51787786	14.19825566
C	17.53075755	23.89258393	17.09240748
C	16.99503660	23.72841374	18.34982672
C	10.92296789	18.62299769	15.41862616
H	11.28064822	17.95926185	13.31730016
H	18.46737856	24.34606205	16.90599885
H	17.41136670	24.00440334	19.33716140
H	9.95260718	18.25225558	15.70326722
H	16.35738212	19.28486894	11.71028333
H	17.96315624	21.42703933	12.37204763
H	12.75213909	22.19201051	21.29329710
H	11.11342691	20.26670318	20.51086729
H	18.67450843	26.33149075	12.21303686
H	13.88890862	25.81276965	22.67458519
H	9.09260628	15.68689628	19.27389921
H	21.53886545	23.31197591	13.64366187
H	16.95755850	22.98630407	23.52786654
H	6.78915563	19.24688060	18.55737766
H	14.68114294	21.16415266	15.12349592
H	13.76532301	21.15194923	17.22740554
C	21.19627046	25.35578476	11.78343714
H	20.73300350	25.66712310	10.89228468
H	21.84183288	24.51134598	11.47498151
H	21.84320239	26.10919719	12.31062819
C	19.71042622	21.91025836	15.11716818
H	19.64586284	20.97672938	14.56850415
H	19.02230322	21.92560886	15.96082441
H	20.76513792	21.96689199	15.44863549
C	16.43772561	25.26698303	13.42261116
H	16.42582202	26.26346727	12.98435129
H	16.04244472	25.32144352	14.46576946
H	15.71710285	24.58627398	12.91023276
C	11.58203165	16.81223831	18.43946156
H	11.60476193	15.82540853	18.95409944
H	12.33157977	17.52559654	18.81507656
H	11.77710129	16.62942634	17.33981704
C	8.80364963	20.87249735	17.71033464
H	7.83285054	21.10662836	17.20730204
H	9.60649140	21.12772150	17.03560285
H	8.81082658	21.57982993	18.55993037
C	6.80316601	16.64011821	19.77944231
H	6.03534462	16.17822010	19.14759499
H	6.25705555	17.17276547	20.51751557
H	7.23810047	15.72698274	20.25811464
C	13.16782071	24.87824964	20.27716853
H	12.21142350	24.89938504	20.93736336
H	13.07633026	24.27341260	19.32588627
H	13.28908972	25.95588249	19.98050155
C	16.99098378	21.64472254	21.03089676
H	17.58441520	21.88015290	20.12087957
H	16.34345759	20.80633724	20.70753935
H	17.65722288	21.27390594	21.78190305
C	15.44122013	24.89029066	24.64007112
H	15.01477646	25.89884060	24.82293787
H	16.35148843	24.77338321	25.26531665
H	14.72244454	24.17858695	25.05743645
C	20.18043814	24.83135091	12.82795746
C	19.43466259	23.09614179	14.30371891
C	17.84733756	24.70051716	13.38693977
C	14.30348516	24.38815108	21.10589890
C	16.12681787	22.79817351	21.47125932
C	15.50905058	24.44124905	23.21936971
C	10.23239230	17.51609620	18.54775461
C	8.84860536	19.43822104	18.16901559
C	7.87258808	17.41963660	19.12303896
H	13.40189021	16.54727603	13.27151928
H	14.17996607	20.03734678	10.82105147
C	13.74669291	18.41377736	12.15940810
C	13.44571451	17.01727105	12.27527436
C	13.97128237	18.96598055	10.94728340

Ti O H C N 0
6-31G*
****

