%chk=f00017784.chk
%mem=24GB
%nproc=12
#p b3lyp/6-31G*

title

0 1
Ti	2.81187400	0.19704000	1.10336000
Ti	0.90594400	5.44057000	1.10336000
Ti	4.71781400	5.44057000	1.10336000
Ti	0.90594400	2.47241000	1.99114000
Ti	4.71781400	2.47241000	1.99114000
Ti	2.81187400	7.71594000	1.99115000
O	2.81187400	8.81302000	0.37332000
O	0.90594400	3.56949000	0.37332000
O	4.71781400	3.56949000	0.37332000
O	0.90594400	0.60134000	1.26110000
O	4.71781400	0.60134000	1.26110000
O	2.81187400	5.84486000	1.26111000
O	2.81187400	2.06812000	1.83340000
O	0.90594400	7.31164000	1.83340000
O	4.71781400	7.31164000	1.83340000
O	0.90594400	4.34349000	2.72118000
O	4.71781400	4.34349000	2.72118000
O	2.81187400	9.58701000	2.72118000
Ti	6.62374588	0.19704000	1.10336000
Ti	21.87123776	0.19704000	1.10336000
Ti	8.52968588	5.44057000	1.10336000
Ti	23.77717776	5.44057000	1.10336000
Ti	8.52968588	2.47241000	1.99114000
Ti	23.77717776	2.47241000	1.99114000
Ti	6.62374588	7.71594000	1.99115000
Ti	21.87123776	7.71594000	1.99115000
Ti	10.43561588	0.19704000	1.10336000
Ti	25.68310776	0.19704000	1.10336000
Ti	14.24749588	0.19704000	1.10336000
Ti	29.49498776	0.19704000	1.10336000
Ti	18.05936588	0.19704000	1.10336000
Ti	12.34155588	5.44057000	1.10336000
Ti	27.58904776	5.44057000	1.10336000
Ti	16.15343588	5.44057000	1.10336000
Ti	19.96530588	5.44057000	1.10336000
Ti	12.34155588	2.47241000	1.99114000
Ti	27.58904776	2.47241000	1.99114000
Ti	16.15343588	2.47241000	1.99114000
Ti	19.96530588	2.47241000	1.99114000
Ti	10.43561588	7.71594000	1.99115000
Ti	25.68310776	7.71594000	1.99115000
Ti	14.24749588	7.71594000	1.99115000
Ti	29.49498776	7.71594000	1.99115000
Ti	18.05936588	7.71594000	1.99115000
O	6.62374588	8.81302000	0.37332000
O	21.87123776	8.81302000	0.37332000
O	8.52968588	3.56949000	0.37332000
O	23.77717776	3.56949000	0.37332000
O	8.52968588	0.60134000	1.26110000
O	23.77717776	0.60134000	1.26110000
O	6.62374588	5.84486000	1.26111000
O	21.87123776	5.84486000	1.26111000
O	6.62374588	2.06812000	1.83340000
O	21.87123776	2.06812000	1.83340000
O	8.52968588	7.31164000	1.83340000
O	23.77717776	7.31164000	1.83340000
O	8.52968588	4.34349000	2.72118000
O	23.77717776	4.34349000	2.72118000
O	6.62374588	9.58701000	2.72118000
O	21.87123776	9.58701000	2.72118000
O	10.43561588	8.81302000	0.37332000
O	25.68310776	8.81302000	0.37332000
O	14.24749588	8.81302000	0.37332000
O	29.49498776	8.81302000	0.37332000
O	18.05936588	8.81302000	0.37332000
O	12.34155588	3.56949000	0.37332000
O	27.58904776	3.56949000	0.37332000
O	16.15343588	3.56949000	0.37332000
O	19.96530588	3.56949000	0.37332000
O	12.34155588	0.60134000	1.26110000
O	27.58904776	0.60134000	1.26110000
O	16.15343588	0.60134000	1.26110000
O	19.96530588	0.60134000	1.26110000
O	10.43561588	5.84486000	1.26111000
O	25.68310776	5.84486000	1.26111000
O	14.24749588	5.84486000	1.26111000
O	29.49498776	5.84486000	1.26111000
O	18.05936588	5.84486000	1.26111000
O	10.43561588	2.06812000	1.83340000
O	25.68310776	2.06812000	1.83340000
O	14.24749588	2.06812000	1.83340000
O	29.49498776	2.06812000	1.83340000
O	18.05936588	2.06812000	1.83340000
O	12.34155588	7.31164000	1.83340000
O	27.58904776	7.31164000	1.83340000
O	16.15343588	7.31164000	1.83340000
O	19.96530588	7.31164000	1.83340000
O	12.34155588	4.34349000	2.72118000
O	27.58904776	4.34349000	2.72118000
O	16.15343588	4.34349000	2.72118000
O	19.96530588	4.34349000	2.72118000
O	10.43561588	9.58701000	2.72118000
O	25.68310776	9.58701000	2.72118000
O	14.24749588	9.58701000	2.72118000
O	29.49498776	9.58701000	2.72118000
O	18.05936588	9.58701000	2.72118000
Ti	2.81187400	10.68408607	1.10336000
Ti	2.81187400	21.17113214	1.10336000
Ti	0.90594400	15.92761607	1.10336000
Ti	0.90594400	26.41466214	1.10336000
Ti	4.71781400	15.92761607	1.10336000
Ti	4.71781400	26.41466214	1.10336000
Ti	0.90594400	12.95945607	1.99114000
Ti	0.90594400	23.44650214	1.99114000
Ti	4.71781400	12.95945607	1.99114000
Ti	4.71781400	23.44650214	1.99114000
Ti	2.81187400	18.20298607	1.99115000
Ti	2.81187400	28.69003214	1.99115000
O	2.81187400	19.30006607	0.37332000
O	2.81187400	29.78711214	0.37332000
O	0.90594400	14.05653607	0.37332000
O	0.90594400	24.54358214	0.37332000
O	4.71781400	14.05653607	0.37332000
O	4.71781400	24.54358214	0.37332000
O	0.90594400	11.08838607	1.26110000
O	0.90594400	21.57543214	1.26110000
O	4.71781400	11.08838607	1.26110000
O	4.71781400	21.57543214	1.26110000
O	2.81187400	16.33190607	1.26111000
O	2.81187400	26.81895214	1.26111000
O	2.81187400	12.55516607	1.83340000
O	2.81187400	23.04221214	1.83340000
O	0.90594400	17.79868607	1.83340000
O	0.90594400	28.28573214	1.83340000
O	4.71781400	17.79868607	1.83340000
O	4.71781400	28.28573214	1.83340000
O	0.90594400	14.83053607	2.72118000
O	0.90594400	25.31758214	2.72118000
O	4.71781400	14.83053607	2.72118000
O	4.71781400	25.31758214	2.72118000
O	2.81187400	20.07405607	2.72118000
O	2.81187400	30.56110214	2.72118000
Ti	6.62374588	10.68408607	1.10336000
Ti	6.62374588	21.17113214	1.10336000
Ti	21.87123776	10.68408607	1.10336000
Ti	21.87123776	21.17113214	1.10336000
Ti	8.52968588	15.92761607	1.10336000
Ti	8.52968588	26.41466214	1.10336000
Ti	23.77717776	15.92761607	1.10336000
Ti	23.77717776	26.41466214	1.10336000
Ti	8.52968588	12.95945607	1.99114000
Ti	8.52968588	23.44650214	1.99114000
Ti	23.77717776	12.95945607	1.99114000
Ti	23.77717776	23.44650214	1.99114000
Ti	6.62374588	18.20298607	1.99115000
Ti	6.62374588	28.69003214	1.99115000
Ti	21.87123776	18.20298607	1.99115000
Ti	21.87123776	28.69003214	1.99115000
Ti	10.43561588	10.68408607	1.10336000
Ti	10.43561588	21.17113214	1.10336000
Ti	25.68310776	10.68408607	1.10336000
Ti	25.68310776	21.17113214	1.10336000
Ti	14.24749588	10.68408607	1.10336000
Ti	14.24749588	21.17113214	1.10336000
Ti	29.49498776	10.68408607	1.10336000
Ti	29.49498776	21.17113214	1.10336000
Ti	18.05936588	10.68408607	1.10336000
Ti	18.05936588	21.17113214	1.10336000
Ti	12.34155588	15.92761607	1.10336000
Ti	12.34155588	26.41466214	1.10336000
Ti	27.58904776	15.92761607	1.10336000
Ti	27.58904776	26.41466214	1.10336000
Ti	16.15343588	15.92761607	1.10336000
Ti	16.15343588	26.41466214	1.10336000
Ti	19.96530588	15.92761607	1.10336000
Ti	19.96530588	26.41466214	1.10336000
Ti	12.34155588	12.95945607	1.99114000
Ti	12.34155588	23.44650214	1.99114000
Ti	27.58904776	12.95945607	1.99114000
Ti	27.58904776	23.44650214	1.99114000
Ti	16.15343588	12.95945607	1.99114000
Ti	16.15343588	23.44650214	1.99114000
Ti	19.96530588	12.95945607	1.99114000
Ti	19.96530588	23.44650214	1.99114000
Ti	10.43561588	18.20298607	1.99115000
Ti	10.43561588	28.69003214	1.99115000
Ti	25.68310776	18.20298607	1.99115000
Ti	25.68310776	28.69003214	1.99115000
Ti	14.24749588	18.20298607	1.99115000
Ti	14.24749588	28.69003214	1.99115000
Ti	29.49498776	18.20298607	1.99115000
Ti	29.49498776	28.69003214	1.99115000
Ti	18.05936588	18.20298607	1.99115000
Ti	18.05936588	28.69003214	1.99115000
O	6.62374588	19.30006607	0.37332000
O	6.62374588	29.78711214	0.37332000
O	21.87123776	19.30006607	0.37332000
O	21.87123776	29.78711214	0.37332000
O	8.52968588	14.05653607	0.37332000
O	8.52968588	24.54358214	0.37332000
O	23.77717776	14.05653607	0.37332000
O	23.77717776	24.54358214	0.37332000
O	8.52968588	11.08838607	1.26110000
O	8.52968588	21.57543214	1.26110000
O	23.77717776	11.08838607	1.26110000
O	23.77717776	21.57543214	1.26110000
O	6.62374588	16.33190607	1.26111000
O	6.62374588	26.81895214	1.26111000
O	21.87123776	16.33190607	1.26111000
O	21.87123776	26.81895214	1.26111000
O	6.62374588	12.55516607	1.83340000
O	6.62374588	23.04221214	1.83340000
O	21.87123776	12.55516607	1.83340000
O	21.87123776	23.04221214	1.83340000
O	8.52968588	17.79868607	1.83340000
O	8.52968588	28.28573214	1.83340000
O	23.77717776	17.79868607	1.83340000
O	23.77717776	28.28573214	1.83340000
O	8.52968588	14.83053607	2.72118000
O	8.52968588	25.31758214	2.72118000
O	23.77717776	14.83053607	2.72118000
O	23.77717776	25.31758214	2.72118000
O	6.62374588	20.07405607	2.72118000
O	6.62374588	30.56110214	2.72118000
O	21.87123776	20.07405607	2.72118000
O	21.87123776	30.56110214	2.72118000
O	10.43561588	19.30006607	0.37332000
O	10.43561588	29.78711214	0.37332000
O	25.68310776	19.30006607	0.37332000
O	25.68310776	29.78711214	0.37332000
O	14.24749588	19.30006607	0.37332000
O	14.24749588	29.78711214	0.37332000
O	29.49498776	19.30006607	0.37332000
O	29.49498776	29.78711214	0.37332000
O	18.05936588	19.30006607	0.37332000
O	18.05936588	29.78711214	0.37332000
O	12.34155588	14.05653607	0.37332000
O	12.34155588	24.54358214	0.37332000
O	27.58904776	14.05653607	0.37332000
O	27.58904776	24.54358214	0.37332000
O	16.15343588	14.05653607	0.37332000
O	16.15343588	24.54358214	0.37332000
O	19.96530588	14.05653607	0.37332000
O	19.96530588	24.54358214	0.37332000
O	12.34155588	11.08838607	1.26110000
O	12.34155588	21.57543214	1.26110000
O	27.58904776	11.08838607	1.26110000
O	27.58904776	21.57543214	1.26110000
O	16.15343588	11.08838607	1.26110000
O	16.15343588	21.57543214	1.26110000
O	19.96530588	11.08838607	1.26110000
O	19.96530588	21.57543214	1.26110000
O	10.43561588	16.33190607	1.26111000
O	10.43561588	26.81895214	1.26111000
O	25.68310776	16.33190607	1.26111000
O	25.68310776	26.81895214	1.26111000
O	14.24749588	16.33190607	1.26111000
O	14.24749588	26.81895214	1.26111000
O	29.49498776	16.33190607	1.26111000
O	29.49498776	26.81895214	1.26111000
O	18.05936588	16.33190607	1.26111000
O	18.05936588	26.81895214	1.26111000
O	10.43561588	12.55516607	1.83340000
O	10.43561588	23.04221214	1.83340000
O	25.68310776	12.55516607	1.83340000
O	25.68310776	23.04221214	1.83340000
O	14.24749588	12.55516607	1.83340000
O	14.24749588	23.04221214	1.83340000
O	29.49498776	12.55516607	1.83340000
O	29.49498776	23.04221214	1.83340000
O	18.05936588	12.55516607	1.83340000
O	18.05936588	23.04221214	1.83340000
O	12.34155588	17.79868607	1.83340000
O	12.34155588	28.28573214	1.83340000
O	27.58904776	17.79868607	1.83340000
O	27.58904776	28.28573214	1.83340000
O	16.15343588	17.79868607	1.83340000
O	16.15343588	28.28573214	1.83340000
O	19.96530588	17.79868607	1.83340000
O	19.96530588	28.28573214	1.83340000
O	12.34155588	14.83053607	2.72118000
O	12.34155588	25.31758214	2.72118000
O	27.58904776	14.83053607	2.72118000
O	27.58904776	25.31758214	2.72118000
O	16.15343588	14.83053607	2.72118000
O	16.15343588	25.31758214	2.72118000
O	19.96530588	14.83053607	2.72118000
O	19.96530588	25.31758214	2.72118000
O	10.43561588	20.07405607	2.72118000
O	10.43561588	30.56110214	2.72118000
O	25.68310776	20.07405607	2.72118000
O	25.68310776	30.56110214	2.72118000
O	14.24749588	20.07405607	2.72118000
O	14.24749588	30.56110214	2.72118000
O	29.49498776	20.07405607	2.72118000
O	29.49498776	30.56110214	2.72118000
O	18.05936588	20.07405607	2.72118000
O	18.05936588	30.56110214	2.72118000
Ti	6.55898477	9.11323629	4.66610906
Ti	6.70817748	6.28210522	5.61145451
Ti	2.78393868	9.20904656	4.73458848
Ti	0.97672289	4.03457614	4.79239512
Ti	4.75977517	3.90410030	4.78676559
Ti	0.90792555	1.08385010	5.58612239
Ti	4.76586202	1.02749850	5.56629782
Ti	2.86449588	6.34050272	5.52549951
O	6.63304337	7.20581735	3.92575072
O	6.67710745	4.38260905	4.69349408
O	6.60845591	0.49250870	5.83012580
O	6.62761004	8.00132712	6.26205635
O	2.98314161	7.27929952	3.98788401
O	0.89031170	2.17365404	4.04165203
O	4.78165465	2.09733815	3.98003353
O	0.91637209	9.60577225	4.82603715
O	4.61315503	9.56721259	4.59135460
O	2.84175133	4.40768331	5.00575700
O	2.86362721	0.60262871	5.56237504
O	0.96728040	5.99340698	5.54686002
O	4.82189030	5.77249090	5.67242277
O	0.83659673	2.86702716	6.31224970
O	4.87917767	2.72081380	6.40871810
O	2.85059690	8.08134711	6.34322422
Ti	21.75112003	9.15424937	4.83650376
Ti	8.54107194	3.94376741	4.80247253
Ti	23.73464218	3.98840674	4.82283263
Ti	8.50263041	1.05599578	5.57483443
Ti	23.73209509	0.99932711	5.49453790
Ti	21.77650795	6.24663634	5.54808590
Ti	10.28177090	9.18930263	4.79390418
Ti	25.70786278	9.22184837	4.75155335
Ti	14.19103370	9.28842839	4.70883275
Ti	29.52984902	9.24472764	4.68282592
Ti	17.99860518	9.18854514	4.77681939
Ti	12.28206324	4.04680506	4.87277539
Ti	27.67097508	3.94748747	4.72246845
Ti	16.09444248	3.87952610	4.69848579
Ti	19.95542540	3.95691782	4.64779823
Ti	12.38040579	1.06454973	5.50067287
Ti	27.52937196	1.09675458	5.53022557
Ti	16.07745572	0.92144083	5.36784504
Ti	19.93221975	1.03282170	5.49090671
Ti	10.41754428	6.30803158	5.55524607
Ti	25.70789491	6.29155092	5.43343131
Ti	14.15846973	6.37909896	5.50768856
Ti	29.57256158	6.36577745	5.44085429
Ti	18.02239364	6.29518390	5.58943552
O	21.87736282	7.34369624	3.96627349
O	8.44927037	2.14149444	4.00441855
O	23.90433098	2.14733548	3.98579788
O	8.51524689	9.58215179	4.74769114
O	23.78866012	9.51851561	4.96787547
O	21.81152926	4.35661795	4.85328286
O	21.79901111	0.56182721	5.86663899
O	8.58705272	5.71134985	5.97565774
O	23.73590060	5.80864217	5.70814017
O	8.56442851	2.73282785	6.47437472
O	23.64044078	2.73118705	6.42930495
O	21.83240814	7.97089650	6.38861986
O	10.39216842	7.33581152	3.93466918
O	25.69014956	7.40708981	3.90704285
O	14.41424095	7.38549954	3.93865757
O	29.69825020	7.40431242	3.90366656
O	18.13882619	7.30916349	3.97093930
O	12.31603062	2.12240684	3.91338046
O	27.60222381	1.98494206	3.90548862
O	16.14429501	2.09493922	3.86279143
O	19.85866744	2.13184109	3.92132228
O	12.26508093	9.68833788	4.87622728
O	27.58263560	9.61304796	4.82901745
O	16.07667838	9.73341089	4.70398951
O	19.86383717	9.73010399	4.78693604
O	10.43240997	4.39478797	4.86043267
O	25.65448761	4.44197275	4.93104082
O	14.24477868	4.51859668	4.77451349
O	29.49088877	4.34310208	4.96161137
O	18.00693448	4.42339197	4.89848226
O	10.44129397	0.44945897	5.93632937
O	25.59636815	0.59104816	5.72192131
O	14.19972147	0.49085919	6.00107660
O	29.47033268	0.65177172	5.75361498
O	18.01903047	0.56344687	5.74351939
O	12.32570797	5.93002743	5.79011716
O	27.63982845	5.83382250	5.69637185
O	16.05559400	5.74883094	5.77211984
O	19.94919528	5.84784767	5.80830881
O	12.41036579	2.86119853	6.44845287
O	27.45160281	2.95789686	6.36984790
O	16.01379542	2.65513816	6.33154476
O	20.02093461	2.86538982	6.34420605
O	10.61312628	8.01952112	6.36291344
O	25.68515702	8.02674074	6.33512075
O	14.38672470	8.06569736	6.28790261
O	29.44351790	8.00663346	6.26511362
O	17.69703121	8.00587789	6.39871977
Ti	6.57788793	19.81700325	4.72272578
Ti	6.55963931	30.10381728	4.78192166
Ti	6.45246822	16.79158860	5.53813106
Ti	6.69890260	27.19925243	5.56634448
Ti	2.85418810	19.92166039	4.70084482
Ti	2.80532624	30.20644413	4.67502459
Ti	0.87001118	14.27815488	4.66680722
Ti	0.91729254	24.99903317	4.67222035
Ti	4.57054986	14.45000828	4.86585669
Ti	4.69823698	25.04052694	4.77221003
Ti	1.00203112	11.48073037	5.54812795
Ti	0.91293306	22.16574169	5.35704422
Ti	4.68714847	11.52315971	5.35363360
Ti	4.78605218	22.11610191	5.51664713
Ti	2.69507646	17.02385500	5.60090140
Ti	2.75665219	27.31329255	5.52573301
O	6.59019951	17.88271239	3.93021244
O	6.44331813	28.19020726	3.95639267
O	6.41404274	14.82219758	4.96769859
O	6.68549297	25.38800783	4.82653174
O	6.57312348	10.95447039	5.64661308
O	6.58004267	21.50909576	6.00319839
O	6.62995112	18.58589681	6.24617236
O	6.69610408	29.00689350	6.32968343
O	2.85856817	18.03168979	3.97426851
O	2.79430529	28.35226472	3.97361312
O	0.92791968	12.47669761	3.84428368
O	0.92362185	23.18201877	3.86985250
O	4.55648350	12.61234199	3.91981278
O	4.56566029	23.07269247	3.96990495
O	0.91424251	20.27053942	4.69615502
O	0.89733325	30.80676731	4.62553938
O	4.70247330	20.31816335	4.84612076
O	4.72057147	30.58390177	4.92158576
O	2.56300553	15.20989770	4.76736606
O	2.87747105	25.30376171	4.93263600
O	2.86963559	10.89478911	5.59420846
O	2.84832971	21.79861459	5.60238670
O	0.87943635	16.78924291	6.17789023
O	0.88894707	26.85540447	5.71258538
O	4.50486576	16.24304950	5.81513522
O	4.85251027	26.67150374	5.95247775
O	1.15445252	13.28943019	6.26833987
O	0.92709217	23.85765583	6.31018050
O	4.48170039	13.18015758	6.24068944
O	4.83547841	23.87267335	6.44789258
O	2.95758059	18.86139907	6.29899679
O	2.93938459	29.07929017	6.37325995
Ti	21.95252876	19.65119403	4.71620918
Ti	21.81357958	30.23776321	4.75251431
Ti	8.43068739	14.47943334	4.81585233
Ti	8.61062355	25.00981379	4.91633888
Ti	23.92246709	14.55026433	4.83972868
Ti	23.83440480	24.92127264	4.75477212
Ti	8.44755302	11.53848974	5.40517762
Ti	8.46101661	22.00646175	5.55903014
Ti	23.82870698	11.58456919	5.40561971
Ti	23.79033375	21.95892343	5.55292183
Ti	21.96200455	16.82801011	5.59976072
Ti	21.82229390	27.29284150	5.43106559
Ti	10.38520782	19.82582644	4.82994108
Ti	10.32702654	30.21086377	4.72656240
Ti	25.74219251	19.74780398	4.61987210
Ti	25.64166028	30.16934598	4.83762042
Ti	14.27957224	19.67725661	4.70728228
Ti	14.11728724	30.15506502	4.69345112
Ti	29.59493557	19.64725875	4.73013541
Ti	29.54830298	30.25874389	4.69087629
Ti	18.12503324	19.70035275	4.68485892
Ti	18.05547016	30.12700905	4.62570622
Ti	12.26102673	14.55707839	4.62118138
Ti	12.39954658	24.96702718	4.78726388
Ti	27.70729061	14.48005061	4.80848204
Ti	27.66354454	24.91706358	4.80012698
Ti	16.11632445	14.58714535	4.85286497
Ti	16.21617888	24.90282769	4.72397128
Ti	20.10339253	14.51091035	4.83625377
Ti	20.03721731	24.85287441	4.75392233
Ti	12.28479468	11.61513852	5.48949931
Ti	12.43699566	22.07549890	5.65388738
Ti	27.60817499	11.54146529	5.45777150
Ti	27.67821426	21.95897653	5.45516858
Ti	16.11456290	11.62141294	5.58922630
Ti	16.22807716	21.96348704	5.42391327
Ti	19.99613655	11.56160726	5.47867458
Ti	19.98601671	21.94591350	5.48881489
Ti	10.39351037	16.86682647	5.44836012
Ti	10.53257523	27.36626312	5.50487394
Ti	25.71550401	16.87895369	5.50923357
Ti	25.58803098	27.27849640	5.41902334
Ti	14.17280693	16.84882489	5.75596678
Ti	14.42587964	27.24031305	5.61687659
Ti	29.64646653	16.78144032	5.55588639
Ti	29.39870491	27.27770033	5.53790827
Ti	18.14058754	16.78100411	5.46736560
Ti	18.08076286	27.26675956	5.49973555
O	22.05234487	17.84686334	3.99140888
O	21.86420941	28.34909102	3.85991956
O	8.40653768	12.67018983	3.95438186
O	8.56020499	23.22557942	4.06955583
O	23.67896940	12.58646288	3.89816565
O	23.77931965	23.04007578	3.96055884
O	8.46949267	20.29578307	4.55609255
O	8.50007486	30.66286195	4.80826384
O	23.82094380	20.13289645	4.78158157
O	23.73975060	30.74548861	4.68599591
O	22.03168337	14.85261275	4.77683207
O	21.92581875	25.41098172	4.52201769
O	21.94639971	11.00977446	5.61204417
O	21.89119852	21.42358742	5.84606717
O	8.48034387	16.31873696	5.73031508
O	8.60235477	26.88435334	5.72336162
O	23.80345536	16.36260570	5.68140212
O	23.75919388	26.77142873	5.76484742
O	8.44560615	13.23733105	6.27968032
O	8.32266598	23.79952911	6.44652763
O	23.86443451	13.23567873	6.37012024
O	23.80217018	23.73202581	6.33261593
O	21.99879724	18.58672487	6.47254795
O	22.08192542	29.01615150	6.20004407
O	10.11240038	17.95097257	3.86662515
O	10.31608972	28.41846297	3.91250231
O	25.84677181	17.88011363	3.95987832
O	25.76116532	28.35906577	3.93285377
O	14.36815650	17.83195177	3.97639926
O	14.27324269	28.28091918	3.96353433
O	29.62826228	17.76818368	3.93110468
O	29.30791079	28.38293684	3.95020444
O	18.41029956	17.83449561	3.89026628
O	18.20896193	28.27661365	3.84122519
O	12.04288248	12.61448541	3.92468566
O	12.54983113	23.03161705	3.99851376
O	27.49783236	12.58873516	3.85861531
O	27.61962697	23.12878064	3.97694586
O	16.04643850	12.63668866	4.01139192
O	16.18335814	23.08345091	3.88646205
O	19.96263797	12.58284434	3.97975986
O	19.96775246	22.96669266	3.88460420
O	12.33449989	20.15086481	5.05601819
O	12.28728421	30.76786093	4.76168045
O	27.63981868	20.18052318	4.79803778
O	27.59211367	30.70205551	4.90946089
O	16.20708406	20.13094832	4.63722982
O	16.09348787	30.47359422	4.72221881
O	20.01915398	20.17189653	4.81233855
O	19.90304876	30.63377233	4.81970246
O	10.29643438	14.85220713	4.95479862
O	10.53436937	25.43442644	4.91218342
O	25.79778914	14.94423833	4.98426448
O	25.73314046	25.42466588	4.66289494
O	14.24065126	15.08041550	4.87246335
O	14.31538285	25.43035696	4.98670003
O	29.60246821	14.81717217	5.09505070
O	29.48659590	25.42665183	4.89468548
O	18.17333326	14.89488297	4.79260651
O	18.09865338	25.28049732	4.84293614
O	10.32029984	11.08958826	5.82365221
O	10.40720662	21.57566749	5.86573155
O	25.67637554	11.14151299	5.65268674
O	25.76979558	21.67023266	5.62867890
O	14.21610624	11.01022286	5.93158142
O	14.39014111	21.56083354	5.68488542
O	29.52543810	11.14449388	5.65316922
O	29.60607991	21.48834078	5.82186797
O	17.97563966	10.95295011	5.75452625
O	18.09515372	21.51881535	5.80200582
O	12.26690673	16.61973027	5.42465828
O	12.46703396	26.92002657	5.59401675
O	27.70095405	16.44588927	5.78072174
O	27.50318419	26.87003181	5.84663915
O	16.26640249	16.49215718	5.47853800
O	16.25979828	26.79081910	5.83951773
O	20.00467012	16.25094216	5.90668530
O	19.90720458	26.68325355	5.77809260
O	12.44608931	13.38817953	6.34506363
O	12.26944802	23.80126426	6.46996326
O	27.69685089	13.25016132	6.38962040
O	27.68078969	23.79911127	6.32009462
O	16.04813557	13.42659283	6.33541926
O	16.34716235	23.67856084	6.30170659
O	20.04266429	13.19726614	6.43833999
O	20.02391834	23.74279953	6.35549357
O	10.22901252	18.55788014	6.29500113
O	10.67465302	29.07371317	6.34709176
O	25.60866306	18.57091546	6.38623057
O	25.57361291	29.02792206	6.41334948
O	14.57263637	18.63216734	6.32550775
O	14.16919361	28.99051120	6.35027327
O	29.41314190	18.58223931	6.30583131
O	29.41948866	29.13026372	6.29927691
O	18.04284099	18.51716207	6.22486191
O	18.05880858	29.01367517	6.26556906
H	14.73814173	14.03777529	7.58289883
H	14.14948276	14.49823116	11.27136510
H	14.14906085	18.17328330	8.90987278
O	14.00163291	16.20073372	7.51475661
O	14.45495769	14.22222274	8.51562360
C	14.14048061	15.46346726	8.65712900
C	14.10141183	16.19417091	9.95011222
C	14.14214085	15.57933816	11.22825473
C	14.12764079	17.65073101	9.93734692
N	12.96944485	19.43831889	15.40078156
N	15.60432655	21.90807225	17.29440860
N	15.63636814	20.40509704	14.64530859
N	12.97758511	21.13938812	17.88960260
C	21.14493654	22.65951597	15.41332307
C	15.02182217	24.19261893	22.76288142
C	7.36173775	19.70793398	17.35878796
C	18.70067805	22.76270905	15.09804850
C	14.41954931	23.65793099	20.41716783
C	9.71862673	19.37323266	17.44470348
C	20.25845551	24.46516737	14.18180116
C	14.43832903	26.00117175	21.23375988
C	8.22998883	17.95993646	18.63573353
C	14.32906239	18.70131259	13.48445891
C	17.33893654	22.04972910	15.37033721
C	14.40487660	22.65409609	19.27038905
C	11.08302268	19.73493304	17.04274173
C	15.47572393	19.52076014	13.64537950
C	16.68762582	21.23615531	14.39284791
C	13.16531368	22.03749837	18.92384699
C	11.78545776	20.49010659	18.01037568
C	16.51019820	19.76044509	12.69229184
C	17.27088522	20.79740150	13.14020980
C	12.03675607	21.95241576	19.79086549
C	11.14571805	21.06732630	19.23586247
C	13.14743200	18.67367958	14.24880661
C	16.85347334	22.23769478	16.70650797
C	15.55487251	22.50626601	18.49776141
C	11.61931160	19.20192390	15.86696271
C	11.91834437	18.03947320	13.93665128
C	17.52872225	23.16266665	17.58824780
C	16.77097714	23.28812143	18.75637915
C	10.99786435	18.30852505	14.89082726
H	11.74117878	17.36118727	13.14855603
H	18.52174460	23.63625379	17.43818018
H	17.18730206	23.81557331	19.60192190
H	9.97668139	17.98997367	15.00026048
H	16.55526057	19.22078989	11.71798895
H	18.16348188	21.19270942	12.62289514
H	11.93908901	22.46251116	20.70113168
H	10.19026600	20.76209130	19.57172705
H	20.31869432	25.48667016	13.84526929
H	14.38544309	27.07477081	20.98878749
H	8.05612949	17.08937082	19.27748720
H	22.01137039	22.07163347	15.72371502
H	15.35549300	23.93606619	23.75259348
H	6.52551882	20.29713358	17.13299341
H	15.16418183	20.47326140	15.54388419
H	13.64669810	20.93399409	17.15783001
C	22.83559122	24.18398911	14.39342854
H	23.12162901	24.09808796	13.31879122
H	23.56782678	23.48465410	14.91528021
H	22.95789907	25.20468819	14.66309157
C	19.67531731	21.00128958	16.59364868
H	19.23755676	21.40170951	17.48557642
H	20.62076340	20.52671027	16.85572982
H	19.04785482	20.16388354	16.20721395
C	17.81708795	24.83127411	13.91991960
H	18.02336004	25.90685600	13.95555501
H	17.00273961	24.65569870	14.61127901
H	17.47561498	24.64136248	12.90879454
C	10.61481976	17.41984738	18.81494987
H	11.59482750	17.96743471	19.05449551
H	10.85527001	16.61602949	18.11812459
H	10.21348527	16.91130430	19.65729741
C	8.83971694	21.33678990	16.08946084
H	9.53348416	21.03373065	15.33822621
H	9.20559940	22.18011612	16.69613002
H	7.90666069	21.57506026	15.57354194
C	5.72806240	18.06519081	18.39016883
H	4.91016407	18.66924900	17.82790145
H	5.51153841	17.98209785	19.47537741
H	5.59890760	17.03932962	18.00857342
C	13.63673288	25.53523502	18.92853682
H	14.34256439	26.17278628	18.37040348
H	12.63667305	26.00097432	19.06379402
H	13.39405526	24.74469245	18.12144229
C	15.13276594	21.79178597	22.03360426
H	15.89343776	21.44638522	21.40242983
H	14.28823232	21.13840838	21.82952287
H	15.35283377	21.62310253	23.09692833
C	15.32292271	26.59880193	23.47871880
H	15.75152768	27.50841966	23.00493419
H	16.14748500	26.18203682	24.07850218
H	14.51405288	26.74440406	24.18085468
C	21.39705647	23.82398674	14.62754128
C	19.83802053	22.17136055	15.64526247
C	18.95439709	23.96772764	14.41305546
C	14.14667060	25.03007901	20.21871902
C	14.78390441	23.18577387	21.76494601
C	14.85492070	25.56608365	22.50464248
C	9.52895347	18.30285534	18.35851010
C	8.62334619	20.10779118	16.97774583
C	7.11282758	18.58354332	18.15069574
H	14.27009598	15.90354013	13.36486982
H	14.12691274	19.54728090	10.93016876
C	14.33189070	17.79971552	12.26902451
C	14.24275093	16.40476070	12.35903647
C	14.20316009	18.47245169	11.04236965

Ti O H C N 0
6-31G*
****

