%chk=f00013553.chk
%mem=24GB
%nproc=12
#p b3lyp/6-31G*

title

0 1
Ti	2.81187400	0.19704000	1.10336000
Ti	0.90594400	5.44057000	1.10336000
Ti	4.71781400	5.44057000	1.10336000
Ti	0.90594400	2.47241000	1.99114000
Ti	4.71781400	2.47241000	1.99114000
Ti	2.81187400	7.71594000	1.99115000
O	2.81187400	8.81302000	0.37332000
O	0.90594400	3.56949000	0.37332000
O	4.71781400	3.56949000	0.37332000
O	0.90594400	0.60134000	1.26110000
O	4.71781400	0.60134000	1.26110000
O	2.81187400	5.84486000	1.26111000
O	2.81187400	2.06812000	1.83340000
O	0.90594400	7.31164000	1.83340000
O	4.71781400	7.31164000	1.83340000
O	0.90594400	4.34349000	2.72118000
O	4.71781400	4.34349000	2.72118000
O	2.81187400	9.58701000	2.72118000
Ti	6.62374588	0.19704000	1.10336000
Ti	21.87123776	0.19704000	1.10336000
Ti	8.52968588	5.44057000	1.10336000
Ti	23.77717776	5.44057000	1.10336000
Ti	8.52968588	2.47241000	1.99114000
Ti	23.77717776	2.47241000	1.99114000
Ti	6.62374588	7.71594000	1.99115000
Ti	21.87123776	7.71594000	1.99115000
Ti	10.43561588	0.19704000	1.10336000
Ti	25.68310776	0.19704000	1.10336000
Ti	14.24749588	0.19704000	1.10336000
Ti	29.49498776	0.19704000	1.10336000
Ti	18.05936588	0.19704000	1.10336000
Ti	12.34155588	5.44057000	1.10336000
Ti	27.58904776	5.44057000	1.10336000
Ti	16.15343588	5.44057000	1.10336000
Ti	19.96530588	5.44057000	1.10336000
Ti	12.34155588	2.47241000	1.99114000
Ti	27.58904776	2.47241000	1.99114000
Ti	16.15343588	2.47241000	1.99114000
Ti	19.96530588	2.47241000	1.99114000
Ti	10.43561588	7.71594000	1.99115000
Ti	25.68310776	7.71594000	1.99115000
Ti	14.24749588	7.71594000	1.99115000
Ti	29.49498776	7.71594000	1.99115000
Ti	18.05936588	7.71594000	1.99115000
O	6.62374588	8.81302000	0.37332000
O	21.87123776	8.81302000	0.37332000
O	8.52968588	3.56949000	0.37332000
O	23.77717776	3.56949000	0.37332000
O	8.52968588	0.60134000	1.26110000
O	23.77717776	0.60134000	1.26110000
O	6.62374588	5.84486000	1.26111000
O	21.87123776	5.84486000	1.26111000
O	6.62374588	2.06812000	1.83340000
O	21.87123776	2.06812000	1.83340000
O	8.52968588	7.31164000	1.83340000
O	23.77717776	7.31164000	1.83340000
O	8.52968588	4.34349000	2.72118000
O	23.77717776	4.34349000	2.72118000
O	6.62374588	9.58701000	2.72118000
O	21.87123776	9.58701000	2.72118000
O	10.43561588	8.81302000	0.37332000
O	25.68310776	8.81302000	0.37332000
O	14.24749588	8.81302000	0.37332000
O	29.49498776	8.81302000	0.37332000
O	18.05936588	8.81302000	0.37332000
O	12.34155588	3.56949000	0.37332000
O	27.58904776	3.56949000	0.37332000
O	16.15343588	3.56949000	0.37332000
O	19.96530588	3.56949000	0.37332000
O	12.34155588	0.60134000	1.26110000
O	27.58904776	0.60134000	1.26110000
O	16.15343588	0.60134000	1.26110000
O	19.96530588	0.60134000	1.26110000
O	10.43561588	5.84486000	1.26111000
O	25.68310776	5.84486000	1.26111000
O	14.24749588	5.84486000	1.26111000
O	29.49498776	5.84486000	1.26111000
O	18.05936588	5.84486000	1.26111000
O	10.43561588	2.06812000	1.83340000
O	25.68310776	2.06812000	1.83340000
O	14.24749588	2.06812000	1.83340000
O	29.49498776	2.06812000	1.83340000
O	18.05936588	2.06812000	1.83340000
O	12.34155588	7.31164000	1.83340000
O	27.58904776	7.31164000	1.83340000
O	16.15343588	7.31164000	1.83340000
O	19.96530588	7.31164000	1.83340000
O	12.34155588	4.34349000	2.72118000
O	27.58904776	4.34349000	2.72118000
O	16.15343588	4.34349000	2.72118000
O	19.96530588	4.34349000	2.72118000
O	10.43561588	9.58701000	2.72118000
O	25.68310776	9.58701000	2.72118000
O	14.24749588	9.58701000	2.72118000
O	29.49498776	9.58701000	2.72118000
O	18.05936588	9.58701000	2.72118000
Ti	2.81187400	10.68408607	1.10336000
Ti	2.81187400	21.17113214	1.10336000
Ti	0.90594400	15.92761607	1.10336000
Ti	0.90594400	26.41466214	1.10336000
Ti	4.71781400	15.92761607	1.10336000
Ti	4.71781400	26.41466214	1.10336000
Ti	0.90594400	12.95945607	1.99114000
Ti	0.90594400	23.44650214	1.99114000
Ti	4.71781400	12.95945607	1.99114000
Ti	4.71781400	23.44650214	1.99114000
Ti	2.81187400	18.20298607	1.99115000
Ti	2.81187400	28.69003214	1.99115000
O	2.81187400	19.30006607	0.37332000
O	2.81187400	29.78711214	0.37332000
O	0.90594400	14.05653607	0.37332000
O	0.90594400	24.54358214	0.37332000
O	4.71781400	14.05653607	0.37332000
O	4.71781400	24.54358214	0.37332000
O	0.90594400	11.08838607	1.26110000
O	0.90594400	21.57543214	1.26110000
O	4.71781400	11.08838607	1.26110000
O	4.71781400	21.57543214	1.26110000
O	2.81187400	16.33190607	1.26111000
O	2.81187400	26.81895214	1.26111000
O	2.81187400	12.55516607	1.83340000
O	2.81187400	23.04221214	1.83340000
O	0.90594400	17.79868607	1.83340000
O	0.90594400	28.28573214	1.83340000
O	4.71781400	17.79868607	1.83340000
O	4.71781400	28.28573214	1.83340000
O	0.90594400	14.83053607	2.72118000
O	0.90594400	25.31758214	2.72118000
O	4.71781400	14.83053607	2.72118000
O	4.71781400	25.31758214	2.72118000
O	2.81187400	20.07405607	2.72118000
O	2.81187400	30.56110214	2.72118000
Ti	6.62374588	10.68408607	1.10336000
Ti	6.62374588	21.17113214	1.10336000
Ti	21.87123776	10.68408607	1.10336000
Ti	21.87123776	21.17113214	1.10336000
Ti	8.52968588	15.92761607	1.10336000
Ti	8.52968588	26.41466214	1.10336000
Ti	23.77717776	15.92761607	1.10336000
Ti	23.77717776	26.41466214	1.10336000
Ti	8.52968588	12.95945607	1.99114000
Ti	8.52968588	23.44650214	1.99114000
Ti	23.77717776	12.95945607	1.99114000
Ti	23.77717776	23.44650214	1.99114000
Ti	6.62374588	18.20298607	1.99115000
Ti	6.62374588	28.69003214	1.99115000
Ti	21.87123776	18.20298607	1.99115000
Ti	21.87123776	28.69003214	1.99115000
Ti	10.43561588	10.68408607	1.10336000
Ti	10.43561588	21.17113214	1.10336000
Ti	25.68310776	10.68408607	1.10336000
Ti	25.68310776	21.17113214	1.10336000
Ti	14.24749588	10.68408607	1.10336000
Ti	14.24749588	21.17113214	1.10336000
Ti	29.49498776	10.68408607	1.10336000
Ti	29.49498776	21.17113214	1.10336000
Ti	18.05936588	10.68408607	1.10336000
Ti	18.05936588	21.17113214	1.10336000
Ti	12.34155588	15.92761607	1.10336000
Ti	12.34155588	26.41466214	1.10336000
Ti	27.58904776	15.92761607	1.10336000
Ti	27.58904776	26.41466214	1.10336000
Ti	16.15343588	15.92761607	1.10336000
Ti	16.15343588	26.41466214	1.10336000
Ti	19.96530588	15.92761607	1.10336000
Ti	19.96530588	26.41466214	1.10336000
Ti	12.34155588	12.95945607	1.99114000
Ti	12.34155588	23.44650214	1.99114000
Ti	27.58904776	12.95945607	1.99114000
Ti	27.58904776	23.44650214	1.99114000
Ti	16.15343588	12.95945607	1.99114000
Ti	16.15343588	23.44650214	1.99114000
Ti	19.96530588	12.95945607	1.99114000
Ti	19.96530588	23.44650214	1.99114000
Ti	10.43561588	18.20298607	1.99115000
Ti	10.43561588	28.69003214	1.99115000
Ti	25.68310776	18.20298607	1.99115000
Ti	25.68310776	28.69003214	1.99115000
Ti	14.24749588	18.20298607	1.99115000
Ti	14.24749588	28.69003214	1.99115000
Ti	29.49498776	18.20298607	1.99115000
Ti	29.49498776	28.69003214	1.99115000
Ti	18.05936588	18.20298607	1.99115000
Ti	18.05936588	28.69003214	1.99115000
O	6.62374588	19.30006607	0.37332000
O	6.62374588	29.78711214	0.37332000
O	21.87123776	19.30006607	0.37332000
O	21.87123776	29.78711214	0.37332000
O	8.52968588	14.05653607	0.37332000
O	8.52968588	24.54358214	0.37332000
O	23.77717776	14.05653607	0.37332000
O	23.77717776	24.54358214	0.37332000
O	8.52968588	11.08838607	1.26110000
O	8.52968588	21.57543214	1.26110000
O	23.77717776	11.08838607	1.26110000
O	23.77717776	21.57543214	1.26110000
O	6.62374588	16.33190607	1.26111000
O	6.62374588	26.81895214	1.26111000
O	21.87123776	16.33190607	1.26111000
O	21.87123776	26.81895214	1.26111000
O	6.62374588	12.55516607	1.83340000
O	6.62374588	23.04221214	1.83340000
O	21.87123776	12.55516607	1.83340000
O	21.87123776	23.04221214	1.83340000
O	8.52968588	17.79868607	1.83340000
O	8.52968588	28.28573214	1.83340000
O	23.77717776	17.79868607	1.83340000
O	23.77717776	28.28573214	1.83340000
O	8.52968588	14.83053607	2.72118000
O	8.52968588	25.31758214	2.72118000
O	23.77717776	14.83053607	2.72118000
O	23.77717776	25.31758214	2.72118000
O	6.62374588	20.07405607	2.72118000
O	6.62374588	30.56110214	2.72118000
O	21.87123776	20.07405607	2.72118000
O	21.87123776	30.56110214	2.72118000
O	10.43561588	19.30006607	0.37332000
O	10.43561588	29.78711214	0.37332000
O	25.68310776	19.30006607	0.37332000
O	25.68310776	29.78711214	0.37332000
O	14.24749588	19.30006607	0.37332000
O	14.24749588	29.78711214	0.37332000
O	29.49498776	19.30006607	0.37332000
O	29.49498776	29.78711214	0.37332000
O	18.05936588	19.30006607	0.37332000
O	18.05936588	29.78711214	0.37332000
O	12.34155588	14.05653607	0.37332000
O	12.34155588	24.54358214	0.37332000
O	27.58904776	14.05653607	0.37332000
O	27.58904776	24.54358214	0.37332000
O	16.15343588	14.05653607	0.37332000
O	16.15343588	24.54358214	0.37332000
O	19.96530588	14.05653607	0.37332000
O	19.96530588	24.54358214	0.37332000
O	12.34155588	11.08838607	1.26110000
O	12.34155588	21.57543214	1.26110000
O	27.58904776	11.08838607	1.26110000
O	27.58904776	21.57543214	1.26110000
O	16.15343588	11.08838607	1.26110000
O	16.15343588	21.57543214	1.26110000
O	19.96530588	11.08838607	1.26110000
O	19.96530588	21.57543214	1.26110000
O	10.43561588	16.33190607	1.26111000
O	10.43561588	26.81895214	1.26111000
O	25.68310776	16.33190607	1.26111000
O	25.68310776	26.81895214	1.26111000
O	14.24749588	16.33190607	1.26111000
O	14.24749588	26.81895214	1.26111000
O	29.49498776	16.33190607	1.26111000
O	29.49498776	26.81895214	1.26111000
O	18.05936588	16.33190607	1.26111000
O	18.05936588	26.81895214	1.26111000
O	10.43561588	12.55516607	1.83340000
O	10.43561588	23.04221214	1.83340000
O	25.68310776	12.55516607	1.83340000
O	25.68310776	23.04221214	1.83340000
O	14.24749588	12.55516607	1.83340000
O	14.24749588	23.04221214	1.83340000
O	29.49498776	12.55516607	1.83340000
O	29.49498776	23.04221214	1.83340000
O	18.05936588	12.55516607	1.83340000
O	18.05936588	23.04221214	1.83340000
O	12.34155588	17.79868607	1.83340000
O	12.34155588	28.28573214	1.83340000
O	27.58904776	17.79868607	1.83340000
O	27.58904776	28.28573214	1.83340000
O	16.15343588	17.79868607	1.83340000
O	16.15343588	28.28573214	1.83340000
O	19.96530588	17.79868607	1.83340000
O	19.96530588	28.28573214	1.83340000
O	12.34155588	14.83053607	2.72118000
O	12.34155588	25.31758214	2.72118000
O	27.58904776	14.83053607	2.72118000
O	27.58904776	25.31758214	2.72118000
O	16.15343588	14.83053607	2.72118000
O	16.15343588	25.31758214	2.72118000
O	19.96530588	14.83053607	2.72118000
O	19.96530588	25.31758214	2.72118000
O	10.43561588	20.07405607	2.72118000
O	10.43561588	30.56110214	2.72118000
O	25.68310776	20.07405607	2.72118000
O	25.68310776	30.56110214	2.72118000
O	14.24749588	20.07405607	2.72118000
O	14.24749588	30.56110214	2.72118000
O	29.49498776	20.07405607	2.72118000
O	29.49498776	30.56110214	2.72118000
O	18.05936588	20.07405607	2.72118000
O	18.05936588	30.56110214	2.72118000
Ti	6.66971921	9.30475027	4.62516839
Ti	6.67976748	6.27928857	5.37189838
Ti	2.80033559	9.22044320	4.84200291
Ti	0.81553789	3.94743408	4.78741682
Ti	4.65022522	4.00028209	4.84876077
Ti	0.89295159	1.01011693	5.42467380
Ti	4.70272389	1.06447946	5.36599591
Ti	2.81046006	6.23491002	5.38101048
O	6.57524563	7.32563082	3.83189815
O	6.66724185	4.43448637	4.70371272
O	6.60951594	0.60803992	5.54282092
O	6.65818816	7.96792111	6.26342441
O	2.83586734	7.37826651	3.85729493
O	0.83759144	2.11354143	3.96719103
O	4.70359584	2.13723169	3.89844354
O	0.96378204	9.73626214	4.72783131
O	4.69082139	9.66866663	4.82056634
O	2.76246811	4.37166741	4.81574519
O	2.75957832	0.55303506	5.67089415
O	0.85142356	5.77940198	5.70563300
O	4.75573379	5.85855536	5.75440121
O	0.83056457	2.77657548	6.37895683
O	4.83160099	2.77664638	6.39782511
O	2.87765603	7.97909064	6.27989908
Ti	21.78709651	9.27501654	4.83751509
Ti	8.61276138	3.93872875	4.75813978
Ti	23.71043783	3.93630965	4.87069127
Ti	8.55983973	1.06344171	5.44499362
Ti	23.68553159	1.08229393	5.49763198
Ti	21.86832768	6.25218489	5.56263019
Ti	10.57727165	9.24079293	4.74851034
Ti	25.60868727	9.18915950	4.69644758
Ti	14.26584342	9.19657873	4.76305883
Ti	29.50008940	9.25663422	4.68933872
Ti	18.09107655	9.22066827	4.73371828
Ti	12.25762199	3.92336496	4.74231602
Ti	27.54009701	4.01054534	4.60675665
Ti	16.12996902	4.01674277	4.74631814
Ti	19.89755362	3.90812082	4.67359782
Ti	12.36262315	1.05014264	5.49625996
Ti	27.56370876	1.10104399	5.45537610
Ti	16.12670311	1.11369011	5.49345984
Ti	19.99942976	1.05036034	5.46064711
Ti	10.41152536	6.29450805	5.44699441
Ti	25.72533743	6.33367203	5.47419989
Ti	14.23457127	6.31755805	5.50227843
Ti	29.41689694	6.24247632	5.43970202
Ti	18.04373361	6.16365981	5.61485541
O	21.73097476	7.36536437	4.00924661
O	8.49522571	2.09587630	3.92510427
O	23.80007875	2.16231133	3.90132790
O	8.49636126	9.70403113	4.79671311
O	23.65178870	9.62666537	4.83731713
O	21.86022110	4.44752948	4.74925117
O	21.88822986	0.52566837	5.81342860
O	8.59709913	5.75081980	5.76123476
O	23.77843068	5.92066335	5.70662548
O	8.77260511	2.77427702	6.32383531
O	23.73052883	2.77980164	6.42769175
O	21.79081485	8.10009128	6.40453740
O	10.44649051	7.33080092	3.93207805
O	25.64096014	7.38373122	3.85715580
O	14.28308689	7.41856611	3.89935462
O	29.49634292	7.34581045	3.86054212
O	18.20704776	7.31881281	3.99976322
O	12.36612608	2.08299518	3.96703475
O	27.48491240	2.08597248	3.87633782
O	16.23637530	2.08056962	3.96010991
O	19.80830455	2.08003053	3.86965550
O	12.42938513	9.69343271	4.83519574
O	27.53011409	9.62581194	4.64652263
O	16.23219357	9.72718775	4.75423357
O	19.92858755	9.73960698	4.99096627
O	10.46523872	4.55098114	4.63719531
O	25.55805323	4.38359331	4.80807335
O	14.16610002	4.46155437	4.69229986
O	29.48488016	4.40365198	4.61081216
O	17.99783873	4.36407822	4.87059829
O	10.42886893	0.53661389	5.78400086
O	25.68261857	0.50256164	5.75514478
O	14.25940014	0.47879445	5.82331622
O	29.51229469	0.48551614	5.55003510
O	18.12462094	0.61965012	5.73270861
O	12.29998221	5.72930285	5.89457054
O	27.55502791	5.81090927	5.60144566
O	16.10237811	5.81271106	5.63648446
O	19.96352167	5.61156870	5.90301412
O	12.27226099	2.82160913	6.42882199
O	27.49334678	2.79281957	6.39825779
O	15.92443612	2.80190802	6.40384129
O	20.10887212	2.74350979	6.33966193
O	10.28111798	8.21858067	6.29500802
O	25.87634939	8.13788067	6.25631425
O	14.46311412	8.00539505	6.32092567
O	29.59143717	7.94334662	6.25394543
O	18.19230798	7.98883362	6.38691794
Ti	6.65188653	19.63371250	4.76011259
Ti	6.55070881	30.25006928	4.78677719
Ti	6.72599077	16.75798335	5.52794013
Ti	6.68832744	27.28158122	5.46426663
Ti	2.77291641	19.67454728	4.86811407
Ti	2.77767211	30.13031623	4.74439982
Ti	0.97539920	14.49388325	4.77730493
Ti	0.96580563	25.00164729	4.66485027
Ti	4.78195372	14.46156662	4.83764987
Ti	4.77364445	24.99540244	4.65051667
Ti	0.95940546	11.56885100	5.57110868
Ti	0.95518443	22.11721028	5.57146801
Ti	4.64956967	11.53865386	5.45882482
Ti	4.74706111	21.95052795	5.34995402
Ti	2.89204666	16.73900417	5.44236512
Ti	2.87428924	27.22040643	5.39267599
O	6.43424901	17.90592819	3.97338620
O	6.80767594	28.39139779	3.90657669
O	6.69485016	14.82945557	4.84490588
O	6.69152108	25.41607033	4.84870921
O	6.60319395	10.96065659	5.70456674
O	6.58041905	21.58948554	5.63462634
O	6.94468901	18.45736447	6.42355259
O	6.67504735	29.06210354	6.27677755
O	3.00032973	17.84048234	3.93813826
O	2.94620592	28.20285425	3.89479125
O	1.08793917	12.63444961	3.93020062
O	1.06570771	23.09099416	3.96682789
O	4.48762794	12.58495019	3.92369716
O	4.70150773	23.05750199	3.82616679
O	0.84361233	20.28394192	4.78865822
O	0.86203918	30.46816169	4.86111197
O	4.74566618	20.00939183	4.88158970
O	4.67542958	30.62610234	4.87237381
O	2.85297520	14.84499467	4.93523379
O	2.85878901	25.32100546	4.88553173
O	2.83114927	10.97439073	5.91164226
O	2.81188479	21.56800118	5.61335629
O	0.95315074	16.44215824	5.61176306
O	0.87986191	26.90128400	5.54446942
O	4.81456251	16.27519402	5.88301206
O	4.72449888	26.93485837	5.78642137
O	0.90957982	13.36197706	6.33639338
O	0.97344177	23.95618936	6.38574227
O	4.78192103	13.21843812	6.35976811
O	4.80673482	23.70080221	6.30722135
O	2.85829829	18.43372172	6.45848389
O	2.82950053	28.97506757	6.33705341
Ti	21.90945128	19.67336269	4.83073348
Ti	21.85245344	30.23615464	4.73111814
Ti	8.56614642	14.47468491	4.75286104
Ti	8.61848249	24.99755919	4.73683796
Ti	23.93692583	14.46837716	4.80193273
Ti	23.77266923	24.95642126	4.67044954
Ti	8.61791927	11.58011141	5.61008986
Ti	8.53513951	22.07027761	5.65351846
Ti	23.80929840	11.49189463	5.51721832
Ti	23.91520927	22.08441148	5.49273958
Ti	21.89863320	16.86797504	5.62607911
Ti	21.92026307	27.40952350	5.61772406
Ti	10.53676577	19.86912645	4.81972652
Ti	10.39018181	30.16686864	4.76160440
Ti	25.86174674	19.73215185	4.67976754
Ti	25.66268668	30.09144393	4.72854691
Ti	14.33789829	19.80359220	4.76634180
Ti	14.24413315	30.24546451	4.71426664
Ti	29.51883932	19.74149816	4.73323653
Ti	29.46039058	30.17619611	4.82882263
Ti	18.09858677	19.77268514	4.80501096
Ti	18.10803660	30.22613790	4.72613673
Ti	12.32642499	14.46115018	4.83329348
Ti	12.38989908	24.89382292	4.82174901
Ti	27.68341352	14.40022650	4.88024167
Ti	27.65123491	24.89664058	4.79848260
Ti	16.11875100	14.65643353	4.62945633
Ti	16.17062827	25.02048985	4.77138517
Ti	20.00306386	14.63082478	4.75395212
Ti	20.01798232	24.97652843	4.89555918
Ti	12.36209189	11.57530152	5.54527466
Ti	12.47149426	22.02324453	5.63591969
Ti	27.67729498	11.46348424	5.48338311
Ti	27.61698959	22.00564588	5.43637533
Ti	16.13264669	11.65023625	5.51996772
Ti	16.34944890	22.14574465	5.55687039
Ti	19.83548760	11.71211732	5.44963084
Ti	20.19751312	22.12372278	5.57398532
Ti	10.48692306	16.88067332	5.55344975
Ti	10.37596664	27.28013477	5.59513821
Ti	25.77805843	16.85150079	5.52310867
Ti	25.71239592	27.19899266	5.48792025
Ti	14.28907249	16.85787490	5.66164645
Ti	14.31557809	27.35688929	5.55268222
Ti	29.52372325	16.81186224	5.49239959
Ti	29.50643497	27.21600246	5.32838794
Ti	18.06332126	16.85451664	5.38743024
Ti	18.13559097	27.33147761	5.52702099
O	21.82323312	17.86919262	3.92118641
O	21.81849132	28.38029651	4.00317514
O	8.61515064	12.62677079	3.97985507
O	8.53578764	23.12943593	3.94452703
O	23.74559708	12.65206490	3.91292499
O	23.66719122	23.02122375	3.93289396
O	8.56358832	20.20459569	4.74212320
O	8.53110499	30.71402292	4.59215457
O	23.78775057	20.21012656	4.78253184
O	23.75793520	30.76240375	4.52086172
O	21.93228308	14.97060206	4.90018100
O	21.89579191	25.35579517	4.97545042
O	21.80976299	11.13848137	5.81470083
O	22.05766390	21.51201022	5.92905495
O	8.63849639	16.33595878	5.70073443
O	8.54351448	26.72299356	5.88706898
O	23.90879879	16.24782151	6.02390442
O	23.84282901	26.77355976	5.80880242
O	8.55192473	13.30892329	6.38889902
O	8.62567681	23.93106081	6.31178299
O	23.81378000	13.21244968	6.29256734
O	23.82752373	23.79452218	6.38011493
O	21.90245406	18.59464607	6.43806890
O	22.00051181	29.23390871	6.40403277
O	10.33015910	17.90840921	3.92572444
O	10.37760494	28.25974157	3.95104713
O	25.82460812	17.77839968	3.95497088
O	25.68712869	28.26331386	3.90879218
O	14.27744681	17.94386087	3.97747024
O	14.11991300	28.35684810	3.95122505
O	29.47688898	17.79186520	3.96821848
O	29.45714894	28.36177223	3.82871193
O	18.16997152	17.87876969	3.93438191
O	18.11362714	28.38035545	3.94044735
O	12.48702891	12.60170973	3.95943889
O	12.37833176	23.11646351	3.96138350
O	27.38770585	12.60177701	3.96431665
O	27.54410546	23.00553712	3.85249710
O	16.10519631	12.58153327	3.93302824
O	16.10988915	23.03454171	3.88509287
O	19.98822282	12.72370670	3.94022116
O	20.21879629	23.18497354	4.01430325
O	12.37758937	20.22399969	4.71018393
O	12.38064786	30.63242574	4.85907267
O	27.70869365	20.10058798	4.90046421
O	27.51322836	30.63442435	4.75607903
O	16.28937681	20.23390666	4.76445619
O	16.18053035	30.68995360	4.65244119
O	20.01815285	20.32428944	4.79338433
O	19.98094875	30.58140634	4.86746001
O	10.50058397	14.97486400	4.64039504
O	10.56757108	25.45704831	4.85941036
O	25.76054511	14.96901511	4.75837323
O	25.70789886	25.37422248	4.64329921
O	14.28577923	14.95996669	4.87985924
O	14.29475120	25.48294147	4.75539789
O	29.49325807	14.82018717	4.82591569
O	29.53617663	25.28112295	4.75322599
O	18.11975908	14.91702579	4.63282288
O	18.11794553	25.46771576	4.75405798
O	10.49732699	11.00156649	5.92687791
O	10.48970274	21.68030819	5.80863311
O	25.69006468	11.03840699	5.93312797
O	25.77837321	21.49166070	5.75839169
O	14.25893589	11.07827671	5.76742286
O	14.48107735	21.63600282	5.89568302
O	29.58694533	11.07315003	5.66635452
O	29.49069421	21.64776731	5.77637949
O	17.96374579	11.18858786	5.88929477
O	18.29229835	21.59750114	5.88979088
O	12.42686283	16.18020955	5.82182771
O	12.37610605	26.75863287	5.88393220
O	27.63598552	16.22715429	5.87954881
O	27.57793130	26.73051726	5.77456938
O	16.25197793	16.41444673	5.54277570
O	16.25059286	26.73558116	5.89763440
O	19.98527822	16.41289098	5.67796905
O	20.06028066	26.88921376	5.91957190
O	12.27716420	13.36244897	6.40009099
O	12.44606893	23.78081637	6.50829491
O	27.68194757	13.14055698	6.44839590
O	27.45949631	23.73395977	6.32231033
O	16.13374205	13.47685397	6.25939529
O	16.19083833	23.92585582	6.32484416
O	19.77769395	13.43849731	6.44663045
O	19.88725110	23.88289862	6.45649892
O	10.65196954	18.59988326	6.31447090
O	10.30893058	29.03914954	6.33325748
O	25.80878973	18.54443191	6.35959400
O	25.71449306	28.88923864	6.41261766
O	14.06147204	18.74777992	6.28591164
O	14.27370820	29.11338449	6.31565570
O	29.54917074	18.42620754	6.38933773
O	29.39374474	28.96923986	6.31045056
O	17.86844354	18.62047652	6.33615915
O	18.13093641	29.00947236	6.38719646
H	15.73868010	14.37775828	7.92972344
H	16.40571531	15.79911198	10.70657872
H	13.61391136	18.36204031	8.68136526
O	14.52725156	16.26844388	7.43002611
O	15.73360605	14.94016743	8.75222086
C	15.15806121	16.05942833	8.56051919
C	15.04571248	17.02942191	9.64982694
C	15.77197654	16.76084291	10.84502200
C	14.19123741	18.11353281	9.62785149
N	13.43903336	19.11064736	15.48222341
N	15.03566574	22.33089700	17.38568062
N	15.40999137	21.08769737	14.64867557
N	12.89669714	20.58012875	18.08762950
C	20.47285441	23.75731783	15.90780494
C	12.71454587	24.44136687	22.44693763
C	8.29581529	17.00071926	17.37188590
C	18.02790311	23.69686700	15.60924176
C	12.92519248	23.75290394	20.16880660
C	10.65446942	17.48499046	17.54953060
C	19.42618547	25.56626758	14.78033812
C	11.81422773	25.86105169	20.67316737
C	9.75045408	15.66307104	18.86219397
C	14.53607135	19.29480007	13.22300690
C	16.81775392	22.78798772	15.65725229
C	13.30780533	22.78146100	19.12666660
C	11.85660602	18.44581554	17.25473810
C	15.37236144	20.44607463	13.48473337
C	16.47255945	21.92807349	14.61808517
C	12.55420859	21.61285533	18.90950758
C	11.98783333	19.59111531	18.10097762
C	16.42637504	20.89583959	12.59360965
C	17.11522995	21.81619013	13.34285160
C	11.41023273	21.15400073	19.62135865
C	11.07646677	19.88613233	19.18647523
C	13.81049265	18.58796465	14.21779394
C	16.13935033	23.01683535	16.86136385
C	14.50415404	23.08169434	18.46701604
C	12.59402489	18.24545800	16.04775882
C	13.13936585	17.35237898	14.03305069
C	16.43794753	24.06564089	17.78050920
C	15.43743425	24.12948027	18.75804329
C	12.31326309	17.12932515	15.11342926
H	13.15204341	16.82417432	13.08826273
H	17.22021439	24.83116890	17.85266411
H	15.26695290	24.93574036	19.51476504
H	11.83873377	16.15622702	15.32484405
H	16.58052115	20.48231129	11.62351098
H	17.99216156	22.39449355	13.00030841
H	10.89819836	21.81212920	20.30765577
H	10.36672741	19.19840450	19.58590463
H	19.37663498	26.54543467	14.35356453
H	11.21620919	26.73347116	20.33080971
H	9.85012738	14.78331279	19.55190817
H	21.35286957	23.41509529	16.48509114
H	12.85926103	24.18751382	23.52614556
H	7.34969896	17.21512595	16.80352063
H	14.69039949	20.99000044	15.39333106
H	13.65417858	20.67139154	17.39835558
C	21.87465748	25.81222596	15.24475259
H	22.72301704	25.30741782	15.72048462
H	21.70711957	26.70902488	15.72535974
H	22.17347861	26.16699766	14.21786328
C	19.16468033	21.92431870	16.99692372
H	18.53589930	21.25219345	16.38015647
H	18.64429971	22.13663588	17.93517331
H	20.16505164	21.45093871	17.17039377
C	17.00989364	25.44314738	14.20797820
H	16.36450512	26.00022917	14.89993079
H	16.43503615	24.56163794	13.91900384
H	17.28716000	26.10063978	13.35268431
C	12.21399968	16.19784357	18.99833522
H	12.63558735	17.17316855	19.32926970
H	12.81615644	15.81380451	18.16024795
H	12.24417094	15.45790094	19.80656016
C	9.24497424	19.01104794	16.13580002
H	8.20438025	19.12296033	15.81435081
H	9.90924965	18.90562659	15.26593858
H	9.45215876	19.93059165	16.69619141
C	7.30860259	15.22212893	18.90102057
H	7.47539099	14.17645163	19.23819965
H	6.40390032	15.21192933	18.25944074
H	7.03368408	15.77114268	19.78646607
C	11.91195280	25.15528446	18.31984468
H	12.71162373	25.77082508	17.90523264
H	10.94448786	25.66941616	18.21695640
H	11.94954728	24.17854870	17.81898750
C	14.18191211	22.37479186	21.90657877
H	15.23371722	22.77556520	21.92539733
H	14.04980244	21.51510692	21.17211820
H	14.07087516	22.04347664	22.96058209
C	11.41694609	26.39016928	23.10215444
H	10.49866155	26.83913176	22.76518555
H	12.09905747	27.11610155	23.51035671
H	11.25867148	25.71747777	23.98401631
C	20.59025280	25.01167139	15.27646758
C	19.21663623	23.18580051	16.17790810
C	18.19288398	24.89098241	14.89196264
C	12.24314122	24.90551201	19.76211842
C	13.24910950	23.54078734	21.49095024
C	12.03432843	25.55653491	22.03865819
C	10.82511008	16.47542408	18.53520904
C	9.42584029	17.80195628	17.01842314
C	8.48098040	15.91092760	18.26340752
H	16.23342129	17.29142788	12.90318907
H	13.47726855	19.80572348	10.69127877
C	14.78248596	18.61756714	11.94347893
C	15.60552385	17.46843616	12.01060943
C	14.15406309	18.94330276	10.76424186

Ti O H C N 0
6-31G*
****

