%chk=f00016761.chk
%mem=24GB
%nproc=12
#p b3lyp/6-31G*

title

0 1
Ti	2.81187400	0.19704000	1.10336000
Ti	0.90594400	5.44057000	1.10336000
Ti	4.71781400	5.44057000	1.10336000
Ti	0.90594400	2.47241000	1.99114000
Ti	4.71781400	2.47241000	1.99114000
Ti	2.81187400	7.71594000	1.99115000
O	2.81187400	8.81302000	0.37332000
O	0.90594400	3.56949000	0.37332000
O	4.71781400	3.56949000	0.37332000
O	0.90594400	0.60134000	1.26110000
O	4.71781400	0.60134000	1.26110000
O	2.81187400	5.84486000	1.26111000
O	2.81187400	2.06812000	1.83340000
O	0.90594400	7.31164000	1.83340000
O	4.71781400	7.31164000	1.83340000
O	0.90594400	4.34349000	2.72118000
O	4.71781400	4.34349000	2.72118000
O	2.81187400	9.58701000	2.72118000
Ti	6.62374588	0.19704000	1.10336000
Ti	21.87123776	0.19704000	1.10336000
Ti	8.52968588	5.44057000	1.10336000
Ti	23.77717776	5.44057000	1.10336000
Ti	8.52968588	2.47241000	1.99114000
Ti	23.77717776	2.47241000	1.99114000
Ti	6.62374588	7.71594000	1.99115000
Ti	21.87123776	7.71594000	1.99115000
Ti	10.43561588	0.19704000	1.10336000
Ti	25.68310776	0.19704000	1.10336000
Ti	14.24749588	0.19704000	1.10336000
Ti	29.49498776	0.19704000	1.10336000
Ti	18.05936588	0.19704000	1.10336000
Ti	12.34155588	5.44057000	1.10336000
Ti	27.58904776	5.44057000	1.10336000
Ti	16.15343588	5.44057000	1.10336000
Ti	19.96530588	5.44057000	1.10336000
Ti	12.34155588	2.47241000	1.99114000
Ti	27.58904776	2.47241000	1.99114000
Ti	16.15343588	2.47241000	1.99114000
Ti	19.96530588	2.47241000	1.99114000
Ti	10.43561588	7.71594000	1.99115000
Ti	25.68310776	7.71594000	1.99115000
Ti	14.24749588	7.71594000	1.99115000
Ti	29.49498776	7.71594000	1.99115000
Ti	18.05936588	7.71594000	1.99115000
O	6.62374588	8.81302000	0.37332000
O	21.87123776	8.81302000	0.37332000
O	8.52968588	3.56949000	0.37332000
O	23.77717776	3.56949000	0.37332000
O	8.52968588	0.60134000	1.26110000
O	23.77717776	0.60134000	1.26110000
O	6.62374588	5.84486000	1.26111000
O	21.87123776	5.84486000	1.26111000
O	6.62374588	2.06812000	1.83340000
O	21.87123776	2.06812000	1.83340000
O	8.52968588	7.31164000	1.83340000
O	23.77717776	7.31164000	1.83340000
O	8.52968588	4.34349000	2.72118000
O	23.77717776	4.34349000	2.72118000
O	6.62374588	9.58701000	2.72118000
O	21.87123776	9.58701000	2.72118000
O	10.43561588	8.81302000	0.37332000
O	25.68310776	8.81302000	0.37332000
O	14.24749588	8.81302000	0.37332000
O	29.49498776	8.81302000	0.37332000
O	18.05936588	8.81302000	0.37332000
O	12.34155588	3.56949000	0.37332000
O	27.58904776	3.56949000	0.37332000
O	16.15343588	3.56949000	0.37332000
O	19.96530588	3.56949000	0.37332000
O	12.34155588	0.60134000	1.26110000
O	27.58904776	0.60134000	1.26110000
O	16.15343588	0.60134000	1.26110000
O	19.96530588	0.60134000	1.26110000
O	10.43561588	5.84486000	1.26111000
O	25.68310776	5.84486000	1.26111000
O	14.24749588	5.84486000	1.26111000
O	29.49498776	5.84486000	1.26111000
O	18.05936588	5.84486000	1.26111000
O	10.43561588	2.06812000	1.83340000
O	25.68310776	2.06812000	1.83340000
O	14.24749588	2.06812000	1.83340000
O	29.49498776	2.06812000	1.83340000
O	18.05936588	2.06812000	1.83340000
O	12.34155588	7.31164000	1.83340000
O	27.58904776	7.31164000	1.83340000
O	16.15343588	7.31164000	1.83340000
O	19.96530588	7.31164000	1.83340000
O	12.34155588	4.34349000	2.72118000
O	27.58904776	4.34349000	2.72118000
O	16.15343588	4.34349000	2.72118000
O	19.96530588	4.34349000	2.72118000
O	10.43561588	9.58701000	2.72118000
O	25.68310776	9.58701000	2.72118000
O	14.24749588	9.58701000	2.72118000
O	29.49498776	9.58701000	2.72118000
O	18.05936588	9.58701000	2.72118000
Ti	2.81187400	10.68408607	1.10336000
Ti	2.81187400	21.17113214	1.10336000
Ti	0.90594400	15.92761607	1.10336000
Ti	0.90594400	26.41466214	1.10336000
Ti	4.71781400	15.92761607	1.10336000
Ti	4.71781400	26.41466214	1.10336000
Ti	0.90594400	12.95945607	1.99114000
Ti	0.90594400	23.44650214	1.99114000
Ti	4.71781400	12.95945607	1.99114000
Ti	4.71781400	23.44650214	1.99114000
Ti	2.81187400	18.20298607	1.99115000
Ti	2.81187400	28.69003214	1.99115000
O	2.81187400	19.30006607	0.37332000
O	2.81187400	29.78711214	0.37332000
O	0.90594400	14.05653607	0.37332000
O	0.90594400	24.54358214	0.37332000
O	4.71781400	14.05653607	0.37332000
O	4.71781400	24.54358214	0.37332000
O	0.90594400	11.08838607	1.26110000
O	0.90594400	21.57543214	1.26110000
O	4.71781400	11.08838607	1.26110000
O	4.71781400	21.57543214	1.26110000
O	2.81187400	16.33190607	1.26111000
O	2.81187400	26.81895214	1.26111000
O	2.81187400	12.55516607	1.83340000
O	2.81187400	23.04221214	1.83340000
O	0.90594400	17.79868607	1.83340000
O	0.90594400	28.28573214	1.83340000
O	4.71781400	17.79868607	1.83340000
O	4.71781400	28.28573214	1.83340000
O	0.90594400	14.83053607	2.72118000
O	0.90594400	25.31758214	2.72118000
O	4.71781400	14.83053607	2.72118000
O	4.71781400	25.31758214	2.72118000
O	2.81187400	20.07405607	2.72118000
O	2.81187400	30.56110214	2.72118000
Ti	6.62374588	10.68408607	1.10336000
Ti	6.62374588	21.17113214	1.10336000
Ti	21.87123776	10.68408607	1.10336000
Ti	21.87123776	21.17113214	1.10336000
Ti	8.52968588	15.92761607	1.10336000
Ti	8.52968588	26.41466214	1.10336000
Ti	23.77717776	15.92761607	1.10336000
Ti	23.77717776	26.41466214	1.10336000
Ti	8.52968588	12.95945607	1.99114000
Ti	8.52968588	23.44650214	1.99114000
Ti	23.77717776	12.95945607	1.99114000
Ti	23.77717776	23.44650214	1.99114000
Ti	6.62374588	18.20298607	1.99115000
Ti	6.62374588	28.69003214	1.99115000
Ti	21.87123776	18.20298607	1.99115000
Ti	21.87123776	28.69003214	1.99115000
Ti	10.43561588	10.68408607	1.10336000
Ti	10.43561588	21.17113214	1.10336000
Ti	25.68310776	10.68408607	1.10336000
Ti	25.68310776	21.17113214	1.10336000
Ti	14.24749588	10.68408607	1.10336000
Ti	14.24749588	21.17113214	1.10336000
Ti	29.49498776	10.68408607	1.10336000
Ti	29.49498776	21.17113214	1.10336000
Ti	18.05936588	10.68408607	1.10336000
Ti	18.05936588	21.17113214	1.10336000
Ti	12.34155588	15.92761607	1.10336000
Ti	12.34155588	26.41466214	1.10336000
Ti	27.58904776	15.92761607	1.10336000
Ti	27.58904776	26.41466214	1.10336000
Ti	16.15343588	15.92761607	1.10336000
Ti	16.15343588	26.41466214	1.10336000
Ti	19.96530588	15.92761607	1.10336000
Ti	19.96530588	26.41466214	1.10336000
Ti	12.34155588	12.95945607	1.99114000
Ti	12.34155588	23.44650214	1.99114000
Ti	27.58904776	12.95945607	1.99114000
Ti	27.58904776	23.44650214	1.99114000
Ti	16.15343588	12.95945607	1.99114000
Ti	16.15343588	23.44650214	1.99114000
Ti	19.96530588	12.95945607	1.99114000
Ti	19.96530588	23.44650214	1.99114000
Ti	10.43561588	18.20298607	1.99115000
Ti	10.43561588	28.69003214	1.99115000
Ti	25.68310776	18.20298607	1.99115000
Ti	25.68310776	28.69003214	1.99115000
Ti	14.24749588	18.20298607	1.99115000
Ti	14.24749588	28.69003214	1.99115000
Ti	29.49498776	18.20298607	1.99115000
Ti	29.49498776	28.69003214	1.99115000
Ti	18.05936588	18.20298607	1.99115000
Ti	18.05936588	28.69003214	1.99115000
O	6.62374588	19.30006607	0.37332000
O	6.62374588	29.78711214	0.37332000
O	21.87123776	19.30006607	0.37332000
O	21.87123776	29.78711214	0.37332000
O	8.52968588	14.05653607	0.37332000
O	8.52968588	24.54358214	0.37332000
O	23.77717776	14.05653607	0.37332000
O	23.77717776	24.54358214	0.37332000
O	8.52968588	11.08838607	1.26110000
O	8.52968588	21.57543214	1.26110000
O	23.77717776	11.08838607	1.26110000
O	23.77717776	21.57543214	1.26110000
O	6.62374588	16.33190607	1.26111000
O	6.62374588	26.81895214	1.26111000
O	21.87123776	16.33190607	1.26111000
O	21.87123776	26.81895214	1.26111000
O	6.62374588	12.55516607	1.83340000
O	6.62374588	23.04221214	1.83340000
O	21.87123776	12.55516607	1.83340000
O	21.87123776	23.04221214	1.83340000
O	8.52968588	17.79868607	1.83340000
O	8.52968588	28.28573214	1.83340000
O	23.77717776	17.79868607	1.83340000
O	23.77717776	28.28573214	1.83340000
O	8.52968588	14.83053607	2.72118000
O	8.52968588	25.31758214	2.72118000
O	23.77717776	14.83053607	2.72118000
O	23.77717776	25.31758214	2.72118000
O	6.62374588	20.07405607	2.72118000
O	6.62374588	30.56110214	2.72118000
O	21.87123776	20.07405607	2.72118000
O	21.87123776	30.56110214	2.72118000
O	10.43561588	19.30006607	0.37332000
O	10.43561588	29.78711214	0.37332000
O	25.68310776	19.30006607	0.37332000
O	25.68310776	29.78711214	0.37332000
O	14.24749588	19.30006607	0.37332000
O	14.24749588	29.78711214	0.37332000
O	29.49498776	19.30006607	0.37332000
O	29.49498776	29.78711214	0.37332000
O	18.05936588	19.30006607	0.37332000
O	18.05936588	29.78711214	0.37332000
O	12.34155588	14.05653607	0.37332000
O	12.34155588	24.54358214	0.37332000
O	27.58904776	14.05653607	0.37332000
O	27.58904776	24.54358214	0.37332000
O	16.15343588	14.05653607	0.37332000
O	16.15343588	24.54358214	0.37332000
O	19.96530588	14.05653607	0.37332000
O	19.96530588	24.54358214	0.37332000
O	12.34155588	11.08838607	1.26110000
O	12.34155588	21.57543214	1.26110000
O	27.58904776	11.08838607	1.26110000
O	27.58904776	21.57543214	1.26110000
O	16.15343588	11.08838607	1.26110000
O	16.15343588	21.57543214	1.26110000
O	19.96530588	11.08838607	1.26110000
O	19.96530588	21.57543214	1.26110000
O	10.43561588	16.33190607	1.26111000
O	10.43561588	26.81895214	1.26111000
O	25.68310776	16.33190607	1.26111000
O	25.68310776	26.81895214	1.26111000
O	14.24749588	16.33190607	1.26111000
O	14.24749588	26.81895214	1.26111000
O	29.49498776	16.33190607	1.26111000
O	29.49498776	26.81895214	1.26111000
O	18.05936588	16.33190607	1.26111000
O	18.05936588	26.81895214	1.26111000
O	10.43561588	12.55516607	1.83340000
O	10.43561588	23.04221214	1.83340000
O	25.68310776	12.55516607	1.83340000
O	25.68310776	23.04221214	1.83340000
O	14.24749588	12.55516607	1.83340000
O	14.24749588	23.04221214	1.83340000
O	29.49498776	12.55516607	1.83340000
O	29.49498776	23.04221214	1.83340000
O	18.05936588	12.55516607	1.83340000
O	18.05936588	23.04221214	1.83340000
O	12.34155588	17.79868607	1.83340000
O	12.34155588	28.28573214	1.83340000
O	27.58904776	17.79868607	1.83340000
O	27.58904776	28.28573214	1.83340000
O	16.15343588	17.79868607	1.83340000
O	16.15343588	28.28573214	1.83340000
O	19.96530588	17.79868607	1.83340000
O	19.96530588	28.28573214	1.83340000
O	12.34155588	14.83053607	2.72118000
O	12.34155588	25.31758214	2.72118000
O	27.58904776	14.83053607	2.72118000
O	27.58904776	25.31758214	2.72118000
O	16.15343588	14.83053607	2.72118000
O	16.15343588	25.31758214	2.72118000
O	19.96530588	14.83053607	2.72118000
O	19.96530588	25.31758214	2.72118000
O	10.43561588	20.07405607	2.72118000
O	10.43561588	30.56110214	2.72118000
O	25.68310776	20.07405607	2.72118000
O	25.68310776	30.56110214	2.72118000
O	14.24749588	20.07405607	2.72118000
O	14.24749588	30.56110214	2.72118000
O	29.49498776	20.07405607	2.72118000
O	29.49498776	30.56110214	2.72118000
O	18.05936588	20.07405607	2.72118000
O	18.05936588	30.56110214	2.72118000
Ti	6.51553447	9.23654574	4.69775416
Ti	6.61327688	6.37334296	5.51401327
Ti	2.74173000	9.26201877	4.77117406
Ti	0.90822972	4.00350046	4.77416393
Ti	4.75045454	3.94728486	4.74251617
Ti	0.96214219	1.06214497	5.39203121
Ti	4.76215814	1.05880426	5.48300441
Ti	2.80597343	6.35406057	5.41382882
O	6.65597374	7.33230841	3.99885473
O	6.66440111	4.54523933	4.67247648
O	6.63595999	0.62413373	5.48618243
O	6.43856038	8.12621395	6.26233402
O	2.92270608	7.48192088	3.96379720
O	0.83619382	2.13078501	3.96357464
O	4.59371832	2.07411977	3.92326093
O	0.81755166	9.64259311	4.64753707
O	4.68521081	9.79073764	4.66954662
O	2.79390147	4.44238542	4.82606091
O	2.87411612	0.52777886	5.69496122
O	0.78560108	5.80518664	5.77607596
O	4.65801498	5.82544853	5.63071435
O	1.03412798	2.77013028	6.25419927
O	4.80682321	2.78854008	6.28679318
O	2.95503770	8.08119031	6.37498619
Ti	21.96436945	9.24101052	4.65755467
Ti	8.55422222	4.09022885	4.71838927
Ti	23.80377062	3.90186551	4.70897215
Ti	8.49887676	1.13809355	5.43265002
Ti	23.92910108	1.02710145	5.57851365
Ti	21.72486757	6.43598125	5.48503563
Ti	10.34847226	9.24361127	4.72456321
Ti	25.75078554	9.18183843	4.71420085
Ti	14.22203029	9.25340693	4.70874839
Ti	29.39672773	9.17517102	4.84890530
Ti	18.10852339	9.17724016	4.73488064
Ti	12.28929728	4.06635334	4.69586442
Ti	27.53140711	3.99750399	4.77168343
Ti	16.07448505	3.91632942	4.78244250
Ti	20.05493662	4.00111457	4.77314500
Ti	12.32727250	1.16114614	5.50994402
Ti	27.68669987	1.02051500	5.56611629
Ti	16.14407151	1.04873877	5.51330619
Ti	20.02070056	0.96834524	5.45391384
Ti	10.38193398	6.39463884	5.56193357
Ti	25.63264991	6.25963370	5.52369689
Ti	14.23481081	6.30614887	5.57874089
Ti	29.41607218	6.27994416	5.61697547
Ti	17.99277301	6.14427596	5.41308278
O	21.93561272	7.35472889	3.95660800
O	8.47386195	2.23296865	3.97815560
O	23.79934590	2.06930191	3.89579344
O	8.47127697	9.49900567	4.83848991
O	23.84629203	9.56105568	4.81424040
O	21.93312080	4.35270849	4.82959637
O	21.93392791	0.57277614	5.69696716
O	8.52294113	5.89085964	5.90280914
O	23.68208424	5.61099980	5.76063193
O	8.53439229	2.89600274	6.34066734
O	23.95407751	2.79910527	6.29638929
O	22.00039284	8.07059881	6.43136962
O	10.48218413	7.38805425	3.91165967
O	25.58784366	7.26592561	3.90090965
O	14.13243201	7.38622270	3.96558515
O	29.28029391	7.23825031	3.97687188
O	18.04900612	7.23383129	3.83441978
O	12.49189465	2.19575644	3.95975243
O	27.52117462	2.06910312	3.93303362
O	16.09733400	2.14232067	3.95029785
O	19.92386635	2.03139416	3.91345959
O	12.36617399	9.60318178	4.91492551
O	27.56815545	9.71252652	4.70723539
O	16.18360305	9.71189124	4.65628075
O	20.06326731	9.56924446	4.70887927
O	10.38444484	4.62539085	4.67188643
O	25.65016632	4.42461774	4.57374088
O	14.23214431	4.45821378	4.78754001
O	29.40405788	4.32858426	4.77707636
O	17.92666078	4.28615310	4.81463156
O	10.39690351	0.68078601	5.52536593
O	25.75340124	0.59330014	5.82291504
O	14.29650477	0.58244277	5.72272162
O	29.60582174	0.49098443	5.72320796
O	18.09063705	0.55873264	5.68844873
O	12.29844424	5.95408556	5.70793699
O	27.47336731	5.71226039	5.80705075
O	16.06995939	5.87661492	5.85764603
O	19.83725539	5.69111252	5.72989415
O	12.16218514	3.00927587	6.40181633
O	27.71651392	2.75149962	6.38289312
O	16.12382733	2.80432371	6.44973955
O	19.95245754	2.74860834	6.34531532
O	10.39315079	8.11815079	6.37291783
O	25.58052313	8.00258002	6.31917213
O	14.37009401	8.12049217	6.39870602
O	29.52120943	8.02370591	6.46106675
O	18.13834795	8.00852826	6.20319061
Ti	6.57530634	19.61621069	4.73921938
Ti	6.60794067	30.23222589	4.64479016
Ti	6.63432073	16.69656570	5.47978758
Ti	6.72012075	27.36674343	5.57159985
Ti	2.84423040	19.72857876	4.83732433
Ti	2.83997396	30.24481405	4.64933165
Ti	0.81401850	14.36942973	4.62382293
Ti	0.89150668	25.00396267	4.87093921
Ti	4.63170056	14.51831832	4.66091933
Ti	4.78579024	25.01840178	4.81266007
Ti	0.90583796	11.50648718	5.55296262
Ti	0.81921340	22.04138568	5.55616718
Ti	4.64952718	11.64128626	5.51181087
Ti	4.73567866	22.06731239	5.49760908
Ti	2.83676747	16.87731416	5.77559824
Ti	2.94033497	27.25726544	5.50022171
O	6.64331504	17.75092058	3.93663678
O	6.68933515	28.34265501	3.90176366
O	6.62866175	14.89000449	4.78177811
O	6.74534637	25.39375654	4.73341544
O	6.51895009	11.27608187	5.66479629
O	6.57623450	21.56627780	5.70479433
O	6.43089223	18.48899021	6.29247220
O	6.43668166	29.11606462	6.38039665
O	2.67058686	17.92883384	4.05015808
O	2.98495806	28.40278630	3.89538370
O	0.77868599	12.45936761	3.87620537
O	0.95278548	23.18169641	4.03317137
O	4.63056732	12.64492988	3.81269041
O	4.62021779	23.13012907	3.94270854
O	0.84908680	20.16463466	4.85184493
O	0.94287010	30.60538435	4.83641752
O	4.69323013	20.20554331	4.60572635
O	4.73086322	30.62318096	4.72674787
O	2.70722246	15.01605530	4.85747332
O	2.83284615	25.46890448	4.59956865
O	2.86610789	10.98050204	5.85608557
O	2.81319774	21.56878558	5.56452236
O	0.82359855	16.80546029	6.19642688
O	0.95994463	26.88432878	5.78934519
O	4.70208038	16.27079464	5.77401039
O	4.88299690	26.84769610	5.59246474
O	0.83270303	13.26854405	6.24750232
O	0.91707632	23.79356487	6.44426491
O	4.61172916	13.38733968	6.29504770
O	4.80886069	23.77259630	6.24874322
O	2.90156809	18.65959455	6.52756892
O	2.82002813	29.05016637	6.28907383
Ti	21.77122856	19.71474574	4.78709989
Ti	21.87265920	30.13377545	4.75714936
Ti	8.52721001	14.48281754	4.73651732
Ti	8.59102330	24.99514239	4.69579246
Ti	23.83912481	14.41225761	4.79169574
Ti	23.76180287	25.00086513	4.77001364
Ti	8.56165031	11.53984593	5.52661059
Ti	8.51954521	22.06823125	5.57479549
Ti	23.71559263	11.52699645	5.52579734
Ti	23.76972611	22.14264620	5.52797535
Ti	21.84030989	16.70798994	5.35194973
Ti	21.89766025	27.23053378	5.51075745
Ti	10.43708455	19.66245875	4.68233178
Ti	10.42153766	30.20771699	4.79610660
Ti	25.54317525	19.72382622	4.79753412
Ti	25.73699585	30.20299729	4.70237749
Ti	14.20579532	19.60077501	4.77348082
Ti	14.25474536	30.21325956	4.69046617
Ti	29.30727644	19.81740439	4.82290122
Ti	29.45448876	30.19796860	4.77193531
Ti	17.96641455	19.69176910	4.73848435
Ti	18.07592044	30.21754023	4.78134503
Ti	12.34360363	14.42798668	4.78511493
Ti	12.24013925	25.02833651	4.89084694
Ti	27.62676850	14.53948402	4.83276483
Ti	27.64064363	24.98679795	4.74994839
Ti	16.19619986	14.52836062	4.68350339
Ti	16.18839748	25.05385623	4.70578695
Ti	20.04121235	14.36977336	4.78417433
Ti	20.03054453	24.91453797	4.68652151
Ti	12.36996945	11.52913754	5.52875356
Ti	12.31840869	22.11495775	5.52992905
Ti	27.52728846	11.57069490	5.52788196
Ti	27.47788206	22.09829935	5.60094695
Ti	16.17319142	11.53446089	5.42346983
Ti	16.11788701	22.15761181	5.62489314
Ti	20.02234781	11.49564217	5.38768700
Ti	19.88485554	21.99476257	5.50133127
Ti	10.36436386	16.77767628	5.51077859
Ti	10.40082886	27.32322823	5.58283622
Ti	25.61614404	16.81600562	5.50555168
Ti	25.69184886	27.28141623	5.37502391
Ti	14.20935544	16.71239250	5.78483905
Ti	14.21564092	27.34667246	5.49226546
Ti	29.43945515	16.92913606	5.52861686
Ti	29.54397158	27.26433563	5.60264602
Ti	18.04770524	16.83003225	5.47612588
Ti	18.10438338	27.24363506	5.56079405
O	21.83377000	17.79297641	3.87688519
O	21.91467481	28.28920118	3.93793170
O	8.48317624	12.53393686	3.92308323
O	8.44284831	23.00941896	3.91349031
O	23.64427797	12.52103248	3.91467275
O	23.66409311	23.09542444	3.87968070
O	8.51479269	20.15908223	4.94486062
O	8.53354736	30.71998422	4.62110662
O	23.70189480	20.26107154	4.80152227
O	23.84581482	30.72768569	4.69597679
O	21.97592008	14.84795522	4.72944280
O	21.89271594	25.31311647	4.83095489
O	21.89530308	11.00329937	5.67290784
O	21.83466665	21.45270086	5.94983903
O	8.48357918	16.18736695	5.82303413
O	8.50698010	26.73151652	5.89977134
O	23.77367356	16.22338257	5.75866866
O	23.78542358	26.75796449	5.90613000
O	8.57386990	13.29276106	6.32984436
O	8.69860839	23.74445245	6.46300101
O	23.88574542	13.22206486	6.31378428
O	23.71014836	23.85159001	6.34494847
O	21.84893346	18.52430869	6.33079118
O	22.02276773	29.01720793	6.33513070
O	10.45327459	17.92401189	3.92585499
O	10.40835737	28.30623878	3.96622202
O	25.54881780	17.88052396	3.96947910
O	25.73145359	28.39063132	3.87268786
O	14.17558792	17.82944040	3.99278276
O	14.17249787	28.36357999	3.91339836
O	29.44236072	17.93203529	3.96266206
O	29.67401159	28.31211832	3.97507917
O	17.86060490	17.88749234	3.87347780
O	18.38444872	28.34151685	3.96614314
O	12.28389448	12.58423420	3.95145699
O	12.37384458	23.19162228	4.03480872
O	27.60139659	12.67967723	3.95085824
O	27.76378177	22.98822875	3.95234598
O	16.21629013	12.64272028	3.88951703
O	16.03836705	23.13059333	3.95508947
O	19.90521671	12.59421139	3.88585356
O	20.03552338	22.99928540	4.02161923
O	12.28249265	20.16836281	4.93446784
O	12.34581628	30.75841829	4.81591166
O	27.43731223	20.23530142	4.84486794
O	27.62526996	30.62171051	4.80237736
O	16.01096516	20.14603275	4.85451875
O	16.12646674	30.58431361	4.69536753
O	19.84187648	20.07517356	4.83951143
O	19.99140515	30.45765086	4.59678689
O	10.44922788	14.97864636	4.83868485
O	10.38382355	25.46540008	4.78878801
O	25.67585283	14.86971848	4.70042940
O	25.75192530	25.37876482	4.82532087
O	14.28358250	14.91405413	4.84362434
O	14.24814187	25.37727387	4.80996854
O	29.57614530	15.11412103	4.88815963
O	29.51098644	25.46214325	4.77229712
O	18.13291477	14.85329109	4.86459098
O	18.08281112	25.35106386	4.83669724
O	10.43451340	11.13070910	5.76181653
O	10.41504341	21.55305073	5.63928464
O	25.66474023	10.96636020	5.86172379
O	25.61794544	21.60711481	5.83459635
O	14.30736665	11.13875384	5.73703822
O	14.12518183	21.57330705	5.76551362
O	29.44966279	11.07571940	5.83090999
O	29.45227195	21.53434521	5.78844932
O	18.18202999	11.12222822	5.56080637
O	17.98313204	21.52664544	5.91145898
O	12.20689843	16.16954257	5.91962191
O	12.36041677	26.92387149	5.68667045
O	27.44859596	16.41094943	5.54292633
O	27.55421794	26.86516502	5.67147827
O	16.13229779	16.29054593	5.63580673
O	16.11574670	26.75418995	5.72261324
O	19.90914917	16.27510035	5.68315929
O	19.95690402	26.65842901	5.87249746
O	12.16903587	13.22313582	6.35412931
O	12.22327271	23.85658034	6.52981997
O	27.33340707	13.33320983	6.42942962
O	27.72686139	23.92565201	6.38234460
O	16.21313514	13.22243056	6.30968732
O	16.08136033	23.88519009	6.42299932
O	20.16850516	13.16382898	6.38871838
O	19.83646732	23.66030232	6.46726908
O	10.29655813	18.61791967	6.40208160
O	10.31937238	29.02556272	6.43262075
O	25.45420302	18.50307329	6.26148358
O	25.77893253	28.94380521	6.32353824
O	14.12603737	18.54294345	6.36167764
O	14.25135381	29.06423129	6.29578747
O	29.27258260	18.69958639	6.43775386
O	29.52717785	29.07975659	6.40415036
O	17.82197854	18.59791548	6.34950309
O	18.05422208	29.03724752	6.39388714
H	13.30575901	14.13404797	7.82328072
H	13.03945940	14.96511506	11.29867765
H	14.33401927	18.19267884	8.80663875
O	14.14942365	16.24977811	7.69906256
O	13.31828434	14.45717283	8.75292309
C	13.73865740	15.66038790	8.78582062
C	13.73368277	16.52280515	9.93040085
C	13.41329622	16.00178415	11.20197974
C	13.95511443	17.89337820	9.75177888
N	12.84610566	19.78671393	15.48221353
N	15.92701989	22.05284740	17.03386043
N	15.35765787	20.87009829	14.30918545
N	13.54458572	20.91992540	18.22369323
C	20.79108632	23.35583847	14.37831548
C	16.67284241	23.11693096	22.73084758
C	7.70566142	19.37554317	18.19211096
C	18.35580409	23.11525390	14.42156335
C	15.43340878	23.02468005	20.68961914
C	10.11746546	19.20511752	18.13179053
C	19.40336322	24.98547970	13.28146724
C	15.16389236	24.93435558	22.21826343
C	8.76451725	17.38472199	19.01015205
C	13.86682108	19.18303443	13.32024727
C	17.19978898	22.38061176	14.91251669
C	15.17871319	22.31926988	19.40318215
C	11.44260130	19.69491784	17.51307000
C	15.01577241	20.00570387	13.33195883
C	16.63799087	21.38293149	14.12811016
C	14.04695930	21.49893924	19.33701487
C	12.33057864	20.39613961	18.42329148
C	16.17611382	19.92875647	12.46566963
C	17.13223131	20.81501700	12.90266111
C	13.07204619	21.24074713	20.37448817
C	11.98564867	20.63154030	19.81250896
C	12.87113760	19.09168994	14.32592076
C	16.89500480	22.66407958	16.26918422
C	16.03717232	22.58646698	18.30516815
C	11.74134319	19.26641302	16.21184064
C	11.70407020	18.16400436	14.25626754
C	17.67477963	23.55352691	17.07912890
C	17.18807282	23.46538443	18.34638703
C	10.97327014	18.38718527	15.35664680
H	11.35999175	17.60542401	13.37624451
H	18.62746338	23.97014594	16.76829422
H	17.72347268	23.89793447	19.16329275
H	9.97869998	17.85846423	15.59458779
H	16.30045952	19.09027211	11.74720396
H	18.15730022	20.97403424	12.50738607
H	13.21217299	21.58369104	21.40442136
H	10.98099377	20.45991311	20.29543606
H	19.26232994	25.95416031	12.66296228
H	14.70242801	25.89110313	22.42377564
H	8.66706313	16.41284651	19.47317871
H	21.80432068	23.15871604	14.83426820
H	17.41498535	22.70121570	23.43084984
H	6.85144403	19.96688616	17.88970192
H	14.80586894	20.94145605	15.17798951
H	13.94187292	21.07673483	17.28303937
C	21.83027534	25.33495545	13.15647099
H	22.75638151	25.16375061	13.61325166
H	21.63929772	26.37336430	13.24704037
H	21.93665492	25.01293692	12.07252874
C	19.69193858	21.43423696	15.67303767
H	19.45175369	20.53544068	15.08729959
H	18.96996319	21.49878705	16.53690448
H	20.67217834	21.40934727	16.13006902
C	16.89994389	24.81785985	13.34727109
H	16.92737472	25.92999205	13.27359049
H	16.08175881	24.49018529	14.05939447
H	16.55618225	24.50706974	12.33070823
C	11.34379923	17.27307138	19.01303646
H	11.18548391	16.29655391	19.53378989
H	11.86490214	18.01109271	19.70485372
H	11.89562011	17.15821558	18.08599990
C	9.15846722	21.41304973	17.56696045
H	9.67583101	21.54586970	16.59305773
H	9.70156918	21.97437274	18.34908281
H	8.19333520	21.90905125	17.41878552
C	6.23862148	17.51602359	18.97477963
H	5.71978643	17.52380626	17.99842798
H	5.61428424	18.01216142	19.67711466
H	6.22516087	16.49072861	19.38953903
C	13.99228503	24.95079033	19.98042707
H	14.29420959	24.70798960	18.98144580
H	14.00976114	26.00834484	20.12445714
H	12.99675755	24.60036905	20.11467990
C	17.02573158	21.12103483	21.27959020
H	17.96841008	21.36059423	20.78256980
H	16.52454452	20.47608055	20.58175718
H	17.22311998	20.50522241	22.18478405
C	16.54925123	25.01725335	24.31603614
H	17.43227587	24.64514931	24.84411895
H	15.70231381	25.02528110	25.05801000
H	16.82686735	26.06266739	24.07539872
C	20.69717097	24.53907290	13.69646266
C	19.63014360	22.63123678	14.78027907
C	18.25956360	24.30990541	13.68960088
C	14.90433065	24.31984048	20.95667239
C	16.33011935	22.40524047	21.56522598
C	16.06616424	24.31072697	23.09164312
C	10.02060873	17.90732436	18.68969923
C	8.94384987	19.96821490	17.98395119
C	7.58468714	18.04821562	18.73668168
H	13.42898898	16.45387558	13.37666877
H	13.87565350	19.84495609	10.74896322
C	13.79256857	18.27034685	12.18009210
C	13.54309379	16.84376738	12.34759280
C	13.88582296	18.73335704	10.86718952

Ti O H C N 0
6-31G*
****

