%chk=f00017404.chk
%mem=24GB
%nproc=12
#p b3lyp/6-31G*

title

0 1
Ti	2.81187400	0.19704000	1.10336000
Ti	0.90594400	5.44057000	1.10336000
Ti	4.71781400	5.44057000	1.10336000
Ti	0.90594400	2.47241000	1.99114000
Ti	4.71781400	2.47241000	1.99114000
Ti	2.81187400	7.71594000	1.99115000
O	2.81187400	8.81302000	0.37332000
O	0.90594400	3.56949000	0.37332000
O	4.71781400	3.56949000	0.37332000
O	0.90594400	0.60134000	1.26110000
O	4.71781400	0.60134000	1.26110000
O	2.81187400	5.84486000	1.26111000
O	2.81187400	2.06812000	1.83340000
O	0.90594400	7.31164000	1.83340000
O	4.71781400	7.31164000	1.83340000
O	0.90594400	4.34349000	2.72118000
O	4.71781400	4.34349000	2.72118000
O	2.81187400	9.58701000	2.72118000
Ti	6.62374588	0.19704000	1.10336000
Ti	21.87123776	0.19704000	1.10336000
Ti	8.52968588	5.44057000	1.10336000
Ti	23.77717776	5.44057000	1.10336000
Ti	8.52968588	2.47241000	1.99114000
Ti	23.77717776	2.47241000	1.99114000
Ti	6.62374588	7.71594000	1.99115000
Ti	21.87123776	7.71594000	1.99115000
Ti	10.43561588	0.19704000	1.10336000
Ti	25.68310776	0.19704000	1.10336000
Ti	14.24749588	0.19704000	1.10336000
Ti	29.49498776	0.19704000	1.10336000
Ti	18.05936588	0.19704000	1.10336000
Ti	12.34155588	5.44057000	1.10336000
Ti	27.58904776	5.44057000	1.10336000
Ti	16.15343588	5.44057000	1.10336000
Ti	19.96530588	5.44057000	1.10336000
Ti	12.34155588	2.47241000	1.99114000
Ti	27.58904776	2.47241000	1.99114000
Ti	16.15343588	2.47241000	1.99114000
Ti	19.96530588	2.47241000	1.99114000
Ti	10.43561588	7.71594000	1.99115000
Ti	25.68310776	7.71594000	1.99115000
Ti	14.24749588	7.71594000	1.99115000
Ti	29.49498776	7.71594000	1.99115000
Ti	18.05936588	7.71594000	1.99115000
O	6.62374588	8.81302000	0.37332000
O	21.87123776	8.81302000	0.37332000
O	8.52968588	3.56949000	0.37332000
O	23.77717776	3.56949000	0.37332000
O	8.52968588	0.60134000	1.26110000
O	23.77717776	0.60134000	1.26110000
O	6.62374588	5.84486000	1.26111000
O	21.87123776	5.84486000	1.26111000
O	6.62374588	2.06812000	1.83340000
O	21.87123776	2.06812000	1.83340000
O	8.52968588	7.31164000	1.83340000
O	23.77717776	7.31164000	1.83340000
O	8.52968588	4.34349000	2.72118000
O	23.77717776	4.34349000	2.72118000
O	6.62374588	9.58701000	2.72118000
O	21.87123776	9.58701000	2.72118000
O	10.43561588	8.81302000	0.37332000
O	25.68310776	8.81302000	0.37332000
O	14.24749588	8.81302000	0.37332000
O	29.49498776	8.81302000	0.37332000
O	18.05936588	8.81302000	0.37332000
O	12.34155588	3.56949000	0.37332000
O	27.58904776	3.56949000	0.37332000
O	16.15343588	3.56949000	0.37332000
O	19.96530588	3.56949000	0.37332000
O	12.34155588	0.60134000	1.26110000
O	27.58904776	0.60134000	1.26110000
O	16.15343588	0.60134000	1.26110000
O	19.96530588	0.60134000	1.26110000
O	10.43561588	5.84486000	1.26111000
O	25.68310776	5.84486000	1.26111000
O	14.24749588	5.84486000	1.26111000
O	29.49498776	5.84486000	1.26111000
O	18.05936588	5.84486000	1.26111000
O	10.43561588	2.06812000	1.83340000
O	25.68310776	2.06812000	1.83340000
O	14.24749588	2.06812000	1.83340000
O	29.49498776	2.06812000	1.83340000
O	18.05936588	2.06812000	1.83340000
O	12.34155588	7.31164000	1.83340000
O	27.58904776	7.31164000	1.83340000
O	16.15343588	7.31164000	1.83340000
O	19.96530588	7.31164000	1.83340000
O	12.34155588	4.34349000	2.72118000
O	27.58904776	4.34349000	2.72118000
O	16.15343588	4.34349000	2.72118000
O	19.96530588	4.34349000	2.72118000
O	10.43561588	9.58701000	2.72118000
O	25.68310776	9.58701000	2.72118000
O	14.24749588	9.58701000	2.72118000
O	29.49498776	9.58701000	2.72118000
O	18.05936588	9.58701000	2.72118000
Ti	2.81187400	10.68408607	1.10336000
Ti	2.81187400	21.17113214	1.10336000
Ti	0.90594400	15.92761607	1.10336000
Ti	0.90594400	26.41466214	1.10336000
Ti	4.71781400	15.92761607	1.10336000
Ti	4.71781400	26.41466214	1.10336000
Ti	0.90594400	12.95945607	1.99114000
Ti	0.90594400	23.44650214	1.99114000
Ti	4.71781400	12.95945607	1.99114000
Ti	4.71781400	23.44650214	1.99114000
Ti	2.81187400	18.20298607	1.99115000
Ti	2.81187400	28.69003214	1.99115000
O	2.81187400	19.30006607	0.37332000
O	2.81187400	29.78711214	0.37332000
O	0.90594400	14.05653607	0.37332000
O	0.90594400	24.54358214	0.37332000
O	4.71781400	14.05653607	0.37332000
O	4.71781400	24.54358214	0.37332000
O	0.90594400	11.08838607	1.26110000
O	0.90594400	21.57543214	1.26110000
O	4.71781400	11.08838607	1.26110000
O	4.71781400	21.57543214	1.26110000
O	2.81187400	16.33190607	1.26111000
O	2.81187400	26.81895214	1.26111000
O	2.81187400	12.55516607	1.83340000
O	2.81187400	23.04221214	1.83340000
O	0.90594400	17.79868607	1.83340000
O	0.90594400	28.28573214	1.83340000
O	4.71781400	17.79868607	1.83340000
O	4.71781400	28.28573214	1.83340000
O	0.90594400	14.83053607	2.72118000
O	0.90594400	25.31758214	2.72118000
O	4.71781400	14.83053607	2.72118000
O	4.71781400	25.31758214	2.72118000
O	2.81187400	20.07405607	2.72118000
O	2.81187400	30.56110214	2.72118000
Ti	6.62374588	10.68408607	1.10336000
Ti	6.62374588	21.17113214	1.10336000
Ti	21.87123776	10.68408607	1.10336000
Ti	21.87123776	21.17113214	1.10336000
Ti	8.52968588	15.92761607	1.10336000
Ti	8.52968588	26.41466214	1.10336000
Ti	23.77717776	15.92761607	1.10336000
Ti	23.77717776	26.41466214	1.10336000
Ti	8.52968588	12.95945607	1.99114000
Ti	8.52968588	23.44650214	1.99114000
Ti	23.77717776	12.95945607	1.99114000
Ti	23.77717776	23.44650214	1.99114000
Ti	6.62374588	18.20298607	1.99115000
Ti	6.62374588	28.69003214	1.99115000
Ti	21.87123776	18.20298607	1.99115000
Ti	21.87123776	28.69003214	1.99115000
Ti	10.43561588	10.68408607	1.10336000
Ti	10.43561588	21.17113214	1.10336000
Ti	25.68310776	10.68408607	1.10336000
Ti	25.68310776	21.17113214	1.10336000
Ti	14.24749588	10.68408607	1.10336000
Ti	14.24749588	21.17113214	1.10336000
Ti	29.49498776	10.68408607	1.10336000
Ti	29.49498776	21.17113214	1.10336000
Ti	18.05936588	10.68408607	1.10336000
Ti	18.05936588	21.17113214	1.10336000
Ti	12.34155588	15.92761607	1.10336000
Ti	12.34155588	26.41466214	1.10336000
Ti	27.58904776	15.92761607	1.10336000
Ti	27.58904776	26.41466214	1.10336000
Ti	16.15343588	15.92761607	1.10336000
Ti	16.15343588	26.41466214	1.10336000
Ti	19.96530588	15.92761607	1.10336000
Ti	19.96530588	26.41466214	1.10336000
Ti	12.34155588	12.95945607	1.99114000
Ti	12.34155588	23.44650214	1.99114000
Ti	27.58904776	12.95945607	1.99114000
Ti	27.58904776	23.44650214	1.99114000
Ti	16.15343588	12.95945607	1.99114000
Ti	16.15343588	23.44650214	1.99114000
Ti	19.96530588	12.95945607	1.99114000
Ti	19.96530588	23.44650214	1.99114000
Ti	10.43561588	18.20298607	1.99115000
Ti	10.43561588	28.69003214	1.99115000
Ti	25.68310776	18.20298607	1.99115000
Ti	25.68310776	28.69003214	1.99115000
Ti	14.24749588	18.20298607	1.99115000
Ti	14.24749588	28.69003214	1.99115000
Ti	29.49498776	18.20298607	1.99115000
Ti	29.49498776	28.69003214	1.99115000
Ti	18.05936588	18.20298607	1.99115000
Ti	18.05936588	28.69003214	1.99115000
O	6.62374588	19.30006607	0.37332000
O	6.62374588	29.78711214	0.37332000
O	21.87123776	19.30006607	0.37332000
O	21.87123776	29.78711214	0.37332000
O	8.52968588	14.05653607	0.37332000
O	8.52968588	24.54358214	0.37332000
O	23.77717776	14.05653607	0.37332000
O	23.77717776	24.54358214	0.37332000
O	8.52968588	11.08838607	1.26110000
O	8.52968588	21.57543214	1.26110000
O	23.77717776	11.08838607	1.26110000
O	23.77717776	21.57543214	1.26110000
O	6.62374588	16.33190607	1.26111000
O	6.62374588	26.81895214	1.26111000
O	21.87123776	16.33190607	1.26111000
O	21.87123776	26.81895214	1.26111000
O	6.62374588	12.55516607	1.83340000
O	6.62374588	23.04221214	1.83340000
O	21.87123776	12.55516607	1.83340000
O	21.87123776	23.04221214	1.83340000
O	8.52968588	17.79868607	1.83340000
O	8.52968588	28.28573214	1.83340000
O	23.77717776	17.79868607	1.83340000
O	23.77717776	28.28573214	1.83340000
O	8.52968588	14.83053607	2.72118000
O	8.52968588	25.31758214	2.72118000
O	23.77717776	14.83053607	2.72118000
O	23.77717776	25.31758214	2.72118000
O	6.62374588	20.07405607	2.72118000
O	6.62374588	30.56110214	2.72118000
O	21.87123776	20.07405607	2.72118000
O	21.87123776	30.56110214	2.72118000
O	10.43561588	19.30006607	0.37332000
O	10.43561588	29.78711214	0.37332000
O	25.68310776	19.30006607	0.37332000
O	25.68310776	29.78711214	0.37332000
O	14.24749588	19.30006607	0.37332000
O	14.24749588	29.78711214	0.37332000
O	29.49498776	19.30006607	0.37332000
O	29.49498776	29.78711214	0.37332000
O	18.05936588	19.30006607	0.37332000
O	18.05936588	29.78711214	0.37332000
O	12.34155588	14.05653607	0.37332000
O	12.34155588	24.54358214	0.37332000
O	27.58904776	14.05653607	0.37332000
O	27.58904776	24.54358214	0.37332000
O	16.15343588	14.05653607	0.37332000
O	16.15343588	24.54358214	0.37332000
O	19.96530588	14.05653607	0.37332000
O	19.96530588	24.54358214	0.37332000
O	12.34155588	11.08838607	1.26110000
O	12.34155588	21.57543214	1.26110000
O	27.58904776	11.08838607	1.26110000
O	27.58904776	21.57543214	1.26110000
O	16.15343588	11.08838607	1.26110000
O	16.15343588	21.57543214	1.26110000
O	19.96530588	11.08838607	1.26110000
O	19.96530588	21.57543214	1.26110000
O	10.43561588	16.33190607	1.26111000
O	10.43561588	26.81895214	1.26111000
O	25.68310776	16.33190607	1.26111000
O	25.68310776	26.81895214	1.26111000
O	14.24749588	16.33190607	1.26111000
O	14.24749588	26.81895214	1.26111000
O	29.49498776	16.33190607	1.26111000
O	29.49498776	26.81895214	1.26111000
O	18.05936588	16.33190607	1.26111000
O	18.05936588	26.81895214	1.26111000
O	10.43561588	12.55516607	1.83340000
O	10.43561588	23.04221214	1.83340000
O	25.68310776	12.55516607	1.83340000
O	25.68310776	23.04221214	1.83340000
O	14.24749588	12.55516607	1.83340000
O	14.24749588	23.04221214	1.83340000
O	29.49498776	12.55516607	1.83340000
O	29.49498776	23.04221214	1.83340000
O	18.05936588	12.55516607	1.83340000
O	18.05936588	23.04221214	1.83340000
O	12.34155588	17.79868607	1.83340000
O	12.34155588	28.28573214	1.83340000
O	27.58904776	17.79868607	1.83340000
O	27.58904776	28.28573214	1.83340000
O	16.15343588	17.79868607	1.83340000
O	16.15343588	28.28573214	1.83340000
O	19.96530588	17.79868607	1.83340000
O	19.96530588	28.28573214	1.83340000
O	12.34155588	14.83053607	2.72118000
O	12.34155588	25.31758214	2.72118000
O	27.58904776	14.83053607	2.72118000
O	27.58904776	25.31758214	2.72118000
O	16.15343588	14.83053607	2.72118000
O	16.15343588	25.31758214	2.72118000
O	19.96530588	14.83053607	2.72118000
O	19.96530588	25.31758214	2.72118000
O	10.43561588	20.07405607	2.72118000
O	10.43561588	30.56110214	2.72118000
O	25.68310776	20.07405607	2.72118000
O	25.68310776	30.56110214	2.72118000
O	14.24749588	20.07405607	2.72118000
O	14.24749588	30.56110214	2.72118000
O	29.49498776	20.07405607	2.72118000
O	29.49498776	30.56110214	2.72118000
O	18.05936588	20.07405607	2.72118000
O	18.05936588	30.56110214	2.72118000
Ti	6.64778993	9.15456292	4.75005492
Ti	6.60582569	6.24350619	5.43569793
Ti	2.79385784	9.12646158	4.74324383
Ti	0.92526076	3.82765386	4.77522410
Ti	4.79789020	3.93181967	4.73203245
Ti	0.90152092	0.94532094	5.61604615
Ti	4.68384181	1.04861535	5.48106869
Ti	2.80525068	6.20362176	5.51653035
O	6.77838886	7.30007168	3.83708037
O	6.69637028	4.33692423	4.76165053
O	6.61561333	0.71250694	5.56031103
O	6.74061392	8.07905933	6.32549616
O	2.74207836	7.23946325	3.95042879
O	0.81147417	2.06078911	3.95359196
O	4.63185499	2.07183321	3.89140099
O	0.91380556	9.67249120	4.67623326
O	4.71820167	9.58518319	4.83534780
O	2.82241556	4.33986534	4.69104187
O	2.79673153	0.57749849	5.55535323
O	0.94005759	5.55851865	5.89654239
O	4.72912867	5.81096735	5.60729904
O	0.91393581	2.70641798	6.47658489
O	4.68971189	2.78583840	6.35662750
O	2.90430541	7.91880652	6.36381198
Ti	21.85171163	9.19305448	4.86864197
Ti	8.62323473	3.95553626	4.65325291
Ti	23.79897502	3.98629721	4.78686891
Ti	8.50343929	1.05078012	5.43568955
Ti	23.68575772	1.04357637	5.56562677
Ti	21.82357627	6.22165493	5.50334989
Ti	10.41937309	9.34160802	4.71182714
Ti	25.79012815	9.24548704	4.75009298
Ti	14.21863731	9.29197656	4.72978201
Ti	29.45430098	9.15428456	4.66809028
Ti	18.04465898	9.12796116	4.75224139
Ti	12.28328659	3.95362178	4.83224433
Ti	27.58668126	3.98211528	4.75916034
Ti	16.04606187	3.93353251	4.84139033
Ti	19.83834010	3.97490555	4.73907677
Ti	12.27939262	0.97721377	5.45361583
Ti	27.62484112	1.13527592	5.66829591
Ti	16.07796571	0.99921533	5.47975933
Ti	19.89093808	1.05917779	5.53153467
Ti	10.38294871	6.41798351	5.43767858
Ti	25.71692949	6.32566720	5.42025630
Ti	14.18455821	6.28623114	5.49397606
Ti	29.48606220	6.21864951	5.48104383
Ti	17.95103273	6.30645169	5.43378137
O	21.81658684	7.40379456	3.98476039
O	8.60188440	2.18072431	3.90017926
O	23.74875377	1.98535227	4.01292066
O	8.52711803	9.72741874	4.72896531
O	23.81410934	9.59656832	4.99883437
O	21.86905547	4.45218653	4.76185218
O	21.72193142	0.57118640	5.82347513
O	8.52846257	5.86252740	5.81374055
O	23.75911872	5.81950317	5.52893400
O	8.74711277	2.86408458	6.31858870
O	23.70643287	2.76590841	6.37981189
O	21.61599184	7.95277688	6.36974824
O	10.51324556	7.50795898	3.89279014
O	25.80667722	7.46978637	3.91363128
O	14.27270623	7.36343329	3.97485302
O	29.57410922	7.28838192	3.90501393
O	18.22014975	7.18151101	3.82830333
O	12.31168015	2.04433630	3.87024523
O	27.80910977	2.16187169	4.00701762
O	16.16423557	2.14921978	3.89703857
O	19.87596050	2.03670784	3.87924635
O	12.34909034	9.57710233	4.78120413
O	27.63724817	9.68671863	4.81246497
O	16.11855255	9.61390774	4.95697647
O	19.96318640	9.75303717	4.73067507
O	10.43117352	4.50223603	4.63974718
O	25.67650461	4.47410466	4.90789727
O	14.21904535	4.43574816	4.77885676
O	29.54625190	4.40234298	4.58316771
O	17.92516407	4.39973609	4.88131877
O	10.39783721	0.57552541	5.75388809
O	25.62903797	0.57360768	5.80866957
O	14.27150414	0.56490909	5.91783348
O	29.43622046	0.59365106	5.52912243
O	17.93339169	0.38731040	5.96312384
O	12.26530966	5.78430224	5.82086876
O	27.56689914	5.84413317	5.68164814
O	16.10290310	5.83707163	5.74798182
O	19.96781693	5.76472305	5.87344286
O	12.28731433	2.79153625	6.33311199
O	27.49433193	2.97942967	6.43861856
O	16.02491601	2.77624808	6.41254473
O	19.83419281	2.86868508	6.30924676
O	10.54149223	8.09366646	6.28133477
O	25.55574873	8.02586504	6.34472578
O	14.31243025	7.96008790	6.35411628
O	29.51222556	8.04460843	6.28417441
O	18.11180515	8.02670730	6.25687144
Ti	6.78445335	19.68352880	4.62944609
Ti	6.60021692	30.22352281	4.69727905
Ti	6.60904541	16.76720814	5.45648862
Ti	6.53303726	27.28393726	5.41872859
Ti	2.99794653	19.65056435	4.74709287
Ti	2.82100391	30.27652387	4.72186722
Ti	0.92489461	14.24606602	4.80380244
Ti	0.88176695	24.96082474	4.71941546
Ti	4.65467030	14.42814186	4.92217517
Ti	4.68453038	24.93908445	4.80279652
Ti	0.92202425	11.41716551	5.51192281
Ti	0.97426781	22.05899114	5.44063470
Ti	4.70178923	11.48234551	5.48020731
Ti	4.84577835	22.05593451	5.51348503
Ti	2.77716267	16.77547879	5.57678332
Ti	2.63186808	27.36660970	5.48898087
O	6.49322944	17.85760997	3.88185620
O	6.52128215	28.27706780	3.89827216
O	6.57584272	14.84959103	4.77181976
O	6.62380976	25.24825566	4.77245548
O	6.61160609	11.05430883	5.68623778
O	6.76466085	21.50980189	5.63584773
O	6.71602727	18.49101100	6.40635081
O	6.72055796	29.06740071	6.39823207
O	2.93657542	17.80023672	3.88876531
O	2.78906376	28.34859416	3.97010262
O	0.81635354	12.50869462	4.04193049
O	0.96244159	23.10146005	3.87923054
O	4.72398632	12.69326837	4.06144855
O	4.63327210	23.07149078	3.91234380
O	0.95397758	20.18973262	4.81001499
O	0.80628421	30.38137354	4.84567094
O	4.90737717	20.06234220	4.84639503
O	4.73043406	30.58745308	4.80288887
O	2.72875876	14.83514458	5.00912468
O	2.75692692	25.47530854	4.69594722
O	2.82188690	10.85438879	5.82611862
O	2.88031924	21.48667770	5.70758504
O	0.93908171	16.83505746	6.14438360
O	0.85097917	26.66130748	5.89089440
O	4.75714166	16.36562925	5.66517280
O	4.62877893	26.81050891	5.66936992
O	0.89627100	13.17218045	6.47915754
O	1.07668382	23.81582312	6.35810335
O	4.67822854	13.21246995	6.54538765
O	4.74293112	23.79603517	6.31655514
O	2.98135498	18.57503528	6.36931400
O	2.90124921	29.14729763	6.36354504
Ti	21.92833515	19.74724385	4.70979707
Ti	21.75288736	30.13513619	4.83139587
Ti	8.45476746	14.40227199	4.67867087
Ti	8.49218115	24.87843454	4.80563939
Ti	23.94291489	14.39848482	4.73101989
Ti	23.79025532	24.93087431	4.92653640
Ti	8.54887556	11.59463686	5.51663701
Ti	8.68243237	21.98066394	5.58131928
Ti	23.73873538	11.54764716	5.50861823
Ti	23.87988988	21.96123084	5.47780775
Ti	22.02225060	16.76098594	5.41350043
Ti	21.96877999	27.24054742	5.53085242
Ti	10.51945234	19.62322889	4.74601723
Ti	10.38090442	30.15418265	4.82265906
Ti	25.77644924	19.63353572	4.74108346
Ti	25.57680155	30.27965055	4.80724135
Ti	14.25232511	19.68149080	4.77634145
Ti	14.21556616	30.17212387	4.91548552
Ti	29.54286575	19.92229249	4.70520284
Ti	29.41047267	30.21831292	4.72259750
Ti	18.14817465	19.69029774	4.66056549
Ti	17.98364935	30.22609374	4.73979233
Ti	12.35832985	14.50858501	4.74085027
Ti	12.44407696	24.98197396	4.77509496
Ti	27.80288792	14.45573628	4.80298191
Ti	27.54712470	25.03976873	4.72061843
Ti	16.13191208	14.52816270	4.69776178
Ti	16.22280450	24.98042150	4.73409075
Ti	20.14945563	14.49826983	4.71432978
Ti	20.07775408	25.00990201	4.86106660
Ti	12.42952166	11.61037615	5.47431928
Ti	12.36339491	22.04658129	5.51795441
Ti	27.72880947	11.51645020	5.54010029
Ti	27.60060429	22.12589909	5.58283167
Ti	16.13774460	11.57926708	5.48963006
Ti	16.20113373	22.00822465	5.44358392
Ti	19.98105531	11.67070564	5.57846007
Ti	20.03874935	22.08711062	5.53505489
Ti	10.27112138	16.69756379	5.41596458
Ti	10.41420908	27.17742556	5.30281271
Ti	25.90561860	16.73364806	5.45318083
Ti	25.71259644	27.38989448	5.57617203
Ti	14.13499262	16.75804257	5.80485951
Ti	14.23237265	27.25450937	5.54976212
Ti	29.62009955	17.01846460	5.52264325
Ti	29.47938569	27.31666047	5.48869758
Ti	18.13927799	16.74841498	5.58606707
Ti	18.04136377	27.32587479	5.63920750
O	22.10240935	17.86017021	3.92488330
O	21.97070995	28.33659936	3.95097594
O	8.40723996	12.58263889	3.97596815
O	8.64535670	22.93093813	3.91761464
O	23.80848741	12.46692981	3.85046477
O	23.90678366	23.08223315	3.95114209
O	8.60639112	20.04656621	5.01010067
O	8.51010488	30.53474484	4.76330454
O	23.82850533	20.00782879	4.72303181
O	23.66389004	30.60117122	4.83703586
O	21.96006818	14.84196419	4.72727146
O	21.99182493	25.26154182	4.99355978
O	21.78949482	11.04479972	5.74576499
O	21.90620234	21.52907626	5.79207906
O	8.40604814	16.21011170	5.76804240
O	8.51602296	26.80642561	5.58887054
O	23.96094747	16.18876708	5.63598220
O	23.79257947	26.82262013	5.90501345
O	8.45697970	13.36635124	6.34405680
O	8.39511796	23.71020374	6.42119789
O	23.74667386	13.30246947	6.28210039
O	23.98969830	23.65353725	6.36309090
O	21.83384530	18.52073973	6.28657289
O	21.88166181	28.93643979	6.40781052
O	10.15818940	17.82851972	3.92395508
O	10.43387999	28.28403056	3.80289085
O	25.83075592	17.77128446	3.92452895
O	25.52265140	28.37363760	3.93149409
O	14.24415226	17.81816254	4.00544272
O	14.08896401	28.38441587	4.00387184
O	29.67136727	17.93861817	3.89400751
O	29.34256428	28.33474634	3.89015313
O	18.09511990	17.83701208	4.00009865
O	18.14508554	28.21339021	3.96471028
O	12.42202971	12.58615356	3.89826915
O	12.59634532	23.08365259	3.94155527
O	27.62432204	12.63608410	3.96506331
O	27.44737210	23.13091017	3.98242642
O	15.90756353	12.62378768	3.89266611
O	16.17649169	23.07140593	3.88721914
O	19.85212657	12.57909342	3.91969730
O	20.03289855	23.08971658	3.98400661
O	12.32967315	20.18178295	4.56287831
O	12.29053092	30.53590076	5.12687193
O	27.59115136	20.27896059	4.74701869
O	27.53989231	30.72748056	4.78836321
O	16.19456475	20.07939803	4.91692015
O	16.08147532	30.66870855	4.55031909
O	19.97379164	20.17516326	4.85072961
O	19.89587632	30.64261666	4.80617069
O	10.29283214	14.92592309	4.59251588
O	10.46749138	25.35959942	4.74298231
O	25.89272148	14.71428159	4.81022019
O	25.61481569	25.51970634	4.83401413
O	14.30814570	14.95834935	4.86182633
O	14.32724611	25.40839696	4.73704054
O	29.68870644	15.13818815	4.80578739
O	29.47261053	25.48961021	4.60800559
O	18.12151172	14.79827558	4.85055095
O	18.16444937	25.32836421	4.98041914
O	10.49951075	11.15071779	5.73791256
O	10.56090192	21.54195108	5.89458092
O	25.72636533	11.04795715	5.80033021
O	25.72348329	21.36166022	5.83080495
O	14.24497669	11.03186451	5.89241550
O	14.24802051	21.50363484	5.94030691
O	29.55796342	10.97826696	5.71578160
O	29.48986205	21.76843960	5.73150347
O	18.05977308	11.04869091	5.67681238
O	18.08182029	21.68454658	5.67596627
O	12.18640214	16.27359676	5.67145363
O	12.31964418	26.79854605	5.73315939
O	27.75746451	16.20656142	5.92214620
O	27.61639133	26.79574399	5.69980960
O	16.18734806	16.34362890	5.55902019
O	16.16648523	26.73055287	5.72769842
O	20.08116411	16.36328621	5.68554583
O	19.98770076	26.94211419	5.62646893
O	12.29176431	13.32519764	6.36280091
O	12.34273485	23.78032932	6.43158289
O	27.80844420	13.36186618	6.38453374
O	27.57878219	23.87703677	6.32828604
O	16.27594785	13.33575749	6.29781759
O	16.12520608	23.82899389	6.26336465
O	19.88210497	13.41447326	6.39697656
O	20.10376520	23.80769078	6.47176056
O	10.53288539	18.39928396	6.30999517
O	10.32820968	28.80135267	6.32799077
O	25.82777714	18.46779041	6.26760189
O	25.81888648	29.16022864	6.46456381
O	14.08529199	18.66699855	6.39760944
O	14.31254072	29.00380413	6.42689062
O	29.38205266	18.70888824	6.30675514
O	29.43686076	29.12041272	6.34391294
O	18.18594495	18.57957671	6.37399079
O	18.01287622	29.07697330	6.34822090
H	14.34133920	14.13522774	7.79155761
H	13.95146652	14.82267734	11.54395301
H	13.84386392	18.38514932	8.90118856
O	14.11950216	16.50295967	7.74521643
O	14.09852638	14.41496815	8.71990361
C	14.00390950	15.73329857	8.81019031
C	13.83828020	16.46163134	10.05552695
C	13.72867541	15.89863796	11.37040217
C	13.90289742	17.87250145	9.90057711
N	12.92008838	19.74852151	15.63312233
N	15.67351047	22.23950932	16.99554222
N	15.44080356	20.81349910	14.51124380
N	13.21095196	21.12828557	18.01530552
C	20.91258577	22.88017381	14.40727647
C	15.34127509	23.44255149	22.95661824
C	7.36093409	19.95203096	17.62462265
C	18.54038263	23.11632006	14.60428452
C	14.72841208	23.45660226	20.59498825
C	9.75997134	19.63843609	17.80225100
C	19.76909622	24.84692273	13.51534451
C	14.12274200	25.30020587	21.99844215
C	8.25725724	18.39969756	19.29914238
C	14.03872107	19.04425297	13.47923574
C	17.29064203	22.41065017	15.02684605
C	14.66187176	22.75524581	19.28092764
C	11.16825229	19.92584581	17.33829032
C	15.11541479	19.96583592	13.52542578
C	16.60932430	21.49924625	14.21456817
C	13.51665907	21.96916565	19.06085026
C	11.92976054	20.65819608	18.19921043
C	16.22490111	20.00583490	12.57629343
C	17.16791439	20.88266791	13.00589613
C	12.46242285	21.91409040	19.98079153
C	11.46021370	21.12213646	19.49256403
C	13.02658087	18.99455044	14.43358636
C	16.78029861	22.76309006	16.32632074
C	15.62041654	22.91375851	18.24027724
C	11.70226817	19.31089061	16.21440087
C	11.81754435	18.17011234	14.29154137
C	17.52752176	23.62723467	17.27695743
C	16.79289051	23.69702036	18.39591666
C	11.03094650	18.34974482	15.38820930
H	11.51893433	17.58791446	13.45302134
H	18.40416593	24.24957817	17.09452598
H	16.96669170	24.27627761	19.29070124
H	10.00694528	18.03975539	15.45594686
H	16.21807787	19.33038774	11.67539400
H	18.15137060	21.05293526	12.50311963
H	12.44654924	22.53768198	20.83052977
H	10.56722147	20.74932516	19.94931077
H	19.71318780	25.75339318	12.88071753
H	13.63003716	26.24365253	22.14236785
H	8.06122936	17.78345742	20.17191168
H	21.84980554	22.44017619	14.70420164
H	15.83626811	23.04763813	23.82275645
H	6.61375688	20.44519275	17.11430784
H	14.99389973	20.89760115	15.42813465
H	13.64740539	21.10060544	17.10159204
C	22.24371957	24.52248069	13.01258332
H	22.25059839	25.59817014	12.93454327
H	22.27601074	24.03600193	11.99257449
H	23.11329765	24.17088428	13.50777267
C	19.79393948	21.20408781	15.81662766
H	20.43346931	20.45195292	15.29198153
H	18.84187991	20.75870759	16.05282260
H	20.30531726	21.51257468	16.78280475
C	17.30180318	25.16055725	13.71350943
H	17.53980375	26.19913621	13.55884892
H	16.68538941	25.22374521	14.61002068
H	16.69631832	24.81585822	12.86634300
C	10.75882913	18.00128206	19.51076458
H	11.01779145	18.65131045	20.39660610
H	11.59369443	18.15611447	18.87137580
H	10.58737240	16.93358397	19.71262869
C	8.89976806	21.35915253	16.11089076
H	9.14618035	20.80815415	15.20215503
H	9.79296343	21.98965770	16.36207787
H	7.97321055	21.93466902	16.02330511
C	5.81951456	18.31541497	18.85793129
H	5.65742980	18.21345555	19.92958595
H	5.76497842	17.29153386	18.43711745
H	5.00191251	18.85020730	18.39751199
C	13.64155625	25.52431618	19.53675661
H	13.67370422	25.01741781	18.58285590
H	14.32777817	26.38369384	19.42355639
H	12.61367301	25.83774692	19.70706871
C	15.78148098	21.39138932	21.45208807
H	16.56181625	21.36518885	20.64706124
H	14.85705992	20.78543237	21.14383951
H	16.19347816	20.85873556	22.36354287
C	14.61313450	25.40651441	24.42605630
H	14.44028032	24.68558803	25.17237325
H	13.92424011	26.22256502	24.38528344
H	15.56609974	25.86266359	24.65329745
C	20.97312529	24.10881772	13.70018739
C	19.71181409	22.39195872	14.90871290
C	18.55391571	24.37518443	13.98073429
C	14.14194832	24.71743505	20.71952078
C	15.27674316	22.79581402	21.73107277
C	14.75936279	24.71001223	23.09309543
C	9.54691880	18.69545866	18.83955458
C	8.66272700	20.31926771	17.18120149
C	7.17006543	18.93247441	18.58907977
H	13.54105206	16.34677739	13.46503282
H	14.22378492	19.73326686	10.82437249
C	13.90738550	18.15399679	12.30291235
C	13.67445423	16.77691109	12.44902637
C	14.05415145	18.66707224	10.99378843

Ti O H C N 0
6-31G*
****

