%chk=f00017634.chk
%mem=24GB
%nproc=12
#p b3lyp/6-31G*

title

0 1
Ti	2.81187400	0.19704000	1.10336000
Ti	0.90594400	5.44057000	1.10336000
Ti	4.71781400	5.44057000	1.10336000
Ti	0.90594400	2.47241000	1.99114000
Ti	4.71781400	2.47241000	1.99114000
Ti	2.81187400	7.71594000	1.99115000
O	2.81187400	8.81302000	0.37332000
O	0.90594400	3.56949000	0.37332000
O	4.71781400	3.56949000	0.37332000
O	0.90594400	0.60134000	1.26110000
O	4.71781400	0.60134000	1.26110000
O	2.81187400	5.84486000	1.26111000
O	2.81187400	2.06812000	1.83340000
O	0.90594400	7.31164000	1.83340000
O	4.71781400	7.31164000	1.83340000
O	0.90594400	4.34349000	2.72118000
O	4.71781400	4.34349000	2.72118000
O	2.81187400	9.58701000	2.72118000
Ti	6.62374588	0.19704000	1.10336000
Ti	21.87123776	0.19704000	1.10336000
Ti	8.52968588	5.44057000	1.10336000
Ti	23.77717776	5.44057000	1.10336000
Ti	8.52968588	2.47241000	1.99114000
Ti	23.77717776	2.47241000	1.99114000
Ti	6.62374588	7.71594000	1.99115000
Ti	21.87123776	7.71594000	1.99115000
Ti	10.43561588	0.19704000	1.10336000
Ti	25.68310776	0.19704000	1.10336000
Ti	14.24749588	0.19704000	1.10336000
Ti	29.49498776	0.19704000	1.10336000
Ti	18.05936588	0.19704000	1.10336000
Ti	12.34155588	5.44057000	1.10336000
Ti	27.58904776	5.44057000	1.10336000
Ti	16.15343588	5.44057000	1.10336000
Ti	19.96530588	5.44057000	1.10336000
Ti	12.34155588	2.47241000	1.99114000
Ti	27.58904776	2.47241000	1.99114000
Ti	16.15343588	2.47241000	1.99114000
Ti	19.96530588	2.47241000	1.99114000
Ti	10.43561588	7.71594000	1.99115000
Ti	25.68310776	7.71594000	1.99115000
Ti	14.24749588	7.71594000	1.99115000
Ti	29.49498776	7.71594000	1.99115000
Ti	18.05936588	7.71594000	1.99115000
O	6.62374588	8.81302000	0.37332000
O	21.87123776	8.81302000	0.37332000
O	8.52968588	3.56949000	0.37332000
O	23.77717776	3.56949000	0.37332000
O	8.52968588	0.60134000	1.26110000
O	23.77717776	0.60134000	1.26110000
O	6.62374588	5.84486000	1.26111000
O	21.87123776	5.84486000	1.26111000
O	6.62374588	2.06812000	1.83340000
O	21.87123776	2.06812000	1.83340000
O	8.52968588	7.31164000	1.83340000
O	23.77717776	7.31164000	1.83340000
O	8.52968588	4.34349000	2.72118000
O	23.77717776	4.34349000	2.72118000
O	6.62374588	9.58701000	2.72118000
O	21.87123776	9.58701000	2.72118000
O	10.43561588	8.81302000	0.37332000
O	25.68310776	8.81302000	0.37332000
O	14.24749588	8.81302000	0.37332000
O	29.49498776	8.81302000	0.37332000
O	18.05936588	8.81302000	0.37332000
O	12.34155588	3.56949000	0.37332000
O	27.58904776	3.56949000	0.37332000
O	16.15343588	3.56949000	0.37332000
O	19.96530588	3.56949000	0.37332000
O	12.34155588	0.60134000	1.26110000
O	27.58904776	0.60134000	1.26110000
O	16.15343588	0.60134000	1.26110000
O	19.96530588	0.60134000	1.26110000
O	10.43561588	5.84486000	1.26111000
O	25.68310776	5.84486000	1.26111000
O	14.24749588	5.84486000	1.26111000
O	29.49498776	5.84486000	1.26111000
O	18.05936588	5.84486000	1.26111000
O	10.43561588	2.06812000	1.83340000
O	25.68310776	2.06812000	1.83340000
O	14.24749588	2.06812000	1.83340000
O	29.49498776	2.06812000	1.83340000
O	18.05936588	2.06812000	1.83340000
O	12.34155588	7.31164000	1.83340000
O	27.58904776	7.31164000	1.83340000
O	16.15343588	7.31164000	1.83340000
O	19.96530588	7.31164000	1.83340000
O	12.34155588	4.34349000	2.72118000
O	27.58904776	4.34349000	2.72118000
O	16.15343588	4.34349000	2.72118000
O	19.96530588	4.34349000	2.72118000
O	10.43561588	9.58701000	2.72118000
O	25.68310776	9.58701000	2.72118000
O	14.24749588	9.58701000	2.72118000
O	29.49498776	9.58701000	2.72118000
O	18.05936588	9.58701000	2.72118000
Ti	2.81187400	10.68408607	1.10336000
Ti	2.81187400	21.17113214	1.10336000
Ti	0.90594400	15.92761607	1.10336000
Ti	0.90594400	26.41466214	1.10336000
Ti	4.71781400	15.92761607	1.10336000
Ti	4.71781400	26.41466214	1.10336000
Ti	0.90594400	12.95945607	1.99114000
Ti	0.90594400	23.44650214	1.99114000
Ti	4.71781400	12.95945607	1.99114000
Ti	4.71781400	23.44650214	1.99114000
Ti	2.81187400	18.20298607	1.99115000
Ti	2.81187400	28.69003214	1.99115000
O	2.81187400	19.30006607	0.37332000
O	2.81187400	29.78711214	0.37332000
O	0.90594400	14.05653607	0.37332000
O	0.90594400	24.54358214	0.37332000
O	4.71781400	14.05653607	0.37332000
O	4.71781400	24.54358214	0.37332000
O	0.90594400	11.08838607	1.26110000
O	0.90594400	21.57543214	1.26110000
O	4.71781400	11.08838607	1.26110000
O	4.71781400	21.57543214	1.26110000
O	2.81187400	16.33190607	1.26111000
O	2.81187400	26.81895214	1.26111000
O	2.81187400	12.55516607	1.83340000
O	2.81187400	23.04221214	1.83340000
O	0.90594400	17.79868607	1.83340000
O	0.90594400	28.28573214	1.83340000
O	4.71781400	17.79868607	1.83340000
O	4.71781400	28.28573214	1.83340000
O	0.90594400	14.83053607	2.72118000
O	0.90594400	25.31758214	2.72118000
O	4.71781400	14.83053607	2.72118000
O	4.71781400	25.31758214	2.72118000
O	2.81187400	20.07405607	2.72118000
O	2.81187400	30.56110214	2.72118000
Ti	6.62374588	10.68408607	1.10336000
Ti	6.62374588	21.17113214	1.10336000
Ti	21.87123776	10.68408607	1.10336000
Ti	21.87123776	21.17113214	1.10336000
Ti	8.52968588	15.92761607	1.10336000
Ti	8.52968588	26.41466214	1.10336000
Ti	23.77717776	15.92761607	1.10336000
Ti	23.77717776	26.41466214	1.10336000
Ti	8.52968588	12.95945607	1.99114000
Ti	8.52968588	23.44650214	1.99114000
Ti	23.77717776	12.95945607	1.99114000
Ti	23.77717776	23.44650214	1.99114000
Ti	6.62374588	18.20298607	1.99115000
Ti	6.62374588	28.69003214	1.99115000
Ti	21.87123776	18.20298607	1.99115000
Ti	21.87123776	28.69003214	1.99115000
Ti	10.43561588	10.68408607	1.10336000
Ti	10.43561588	21.17113214	1.10336000
Ti	25.68310776	10.68408607	1.10336000
Ti	25.68310776	21.17113214	1.10336000
Ti	14.24749588	10.68408607	1.10336000
Ti	14.24749588	21.17113214	1.10336000
Ti	29.49498776	10.68408607	1.10336000
Ti	29.49498776	21.17113214	1.10336000
Ti	18.05936588	10.68408607	1.10336000
Ti	18.05936588	21.17113214	1.10336000
Ti	12.34155588	15.92761607	1.10336000
Ti	12.34155588	26.41466214	1.10336000
Ti	27.58904776	15.92761607	1.10336000
Ti	27.58904776	26.41466214	1.10336000
Ti	16.15343588	15.92761607	1.10336000
Ti	16.15343588	26.41466214	1.10336000
Ti	19.96530588	15.92761607	1.10336000
Ti	19.96530588	26.41466214	1.10336000
Ti	12.34155588	12.95945607	1.99114000
Ti	12.34155588	23.44650214	1.99114000
Ti	27.58904776	12.95945607	1.99114000
Ti	27.58904776	23.44650214	1.99114000
Ti	16.15343588	12.95945607	1.99114000
Ti	16.15343588	23.44650214	1.99114000
Ti	19.96530588	12.95945607	1.99114000
Ti	19.96530588	23.44650214	1.99114000
Ti	10.43561588	18.20298607	1.99115000
Ti	10.43561588	28.69003214	1.99115000
Ti	25.68310776	18.20298607	1.99115000
Ti	25.68310776	28.69003214	1.99115000
Ti	14.24749588	18.20298607	1.99115000
Ti	14.24749588	28.69003214	1.99115000
Ti	29.49498776	18.20298607	1.99115000
Ti	29.49498776	28.69003214	1.99115000
Ti	18.05936588	18.20298607	1.99115000
Ti	18.05936588	28.69003214	1.99115000
O	6.62374588	19.30006607	0.37332000
O	6.62374588	29.78711214	0.37332000
O	21.87123776	19.30006607	0.37332000
O	21.87123776	29.78711214	0.37332000
O	8.52968588	14.05653607	0.37332000
O	8.52968588	24.54358214	0.37332000
O	23.77717776	14.05653607	0.37332000
O	23.77717776	24.54358214	0.37332000
O	8.52968588	11.08838607	1.26110000
O	8.52968588	21.57543214	1.26110000
O	23.77717776	11.08838607	1.26110000
O	23.77717776	21.57543214	1.26110000
O	6.62374588	16.33190607	1.26111000
O	6.62374588	26.81895214	1.26111000
O	21.87123776	16.33190607	1.26111000
O	21.87123776	26.81895214	1.26111000
O	6.62374588	12.55516607	1.83340000
O	6.62374588	23.04221214	1.83340000
O	21.87123776	12.55516607	1.83340000
O	21.87123776	23.04221214	1.83340000
O	8.52968588	17.79868607	1.83340000
O	8.52968588	28.28573214	1.83340000
O	23.77717776	17.79868607	1.83340000
O	23.77717776	28.28573214	1.83340000
O	8.52968588	14.83053607	2.72118000
O	8.52968588	25.31758214	2.72118000
O	23.77717776	14.83053607	2.72118000
O	23.77717776	25.31758214	2.72118000
O	6.62374588	20.07405607	2.72118000
O	6.62374588	30.56110214	2.72118000
O	21.87123776	20.07405607	2.72118000
O	21.87123776	30.56110214	2.72118000
O	10.43561588	19.30006607	0.37332000
O	10.43561588	29.78711214	0.37332000
O	25.68310776	19.30006607	0.37332000
O	25.68310776	29.78711214	0.37332000
O	14.24749588	19.30006607	0.37332000
O	14.24749588	29.78711214	0.37332000
O	29.49498776	19.30006607	0.37332000
O	29.49498776	29.78711214	0.37332000
O	18.05936588	19.30006607	0.37332000
O	18.05936588	29.78711214	0.37332000
O	12.34155588	14.05653607	0.37332000
O	12.34155588	24.54358214	0.37332000
O	27.58904776	14.05653607	0.37332000
O	27.58904776	24.54358214	0.37332000
O	16.15343588	14.05653607	0.37332000
O	16.15343588	24.54358214	0.37332000
O	19.96530588	14.05653607	0.37332000
O	19.96530588	24.54358214	0.37332000
O	12.34155588	11.08838607	1.26110000
O	12.34155588	21.57543214	1.26110000
O	27.58904776	11.08838607	1.26110000
O	27.58904776	21.57543214	1.26110000
O	16.15343588	11.08838607	1.26110000
O	16.15343588	21.57543214	1.26110000
O	19.96530588	11.08838607	1.26110000
O	19.96530588	21.57543214	1.26110000
O	10.43561588	16.33190607	1.26111000
O	10.43561588	26.81895214	1.26111000
O	25.68310776	16.33190607	1.26111000
O	25.68310776	26.81895214	1.26111000
O	14.24749588	16.33190607	1.26111000
O	14.24749588	26.81895214	1.26111000
O	29.49498776	16.33190607	1.26111000
O	29.49498776	26.81895214	1.26111000
O	18.05936588	16.33190607	1.26111000
O	18.05936588	26.81895214	1.26111000
O	10.43561588	12.55516607	1.83340000
O	10.43561588	23.04221214	1.83340000
O	25.68310776	12.55516607	1.83340000
O	25.68310776	23.04221214	1.83340000
O	14.24749588	12.55516607	1.83340000
O	14.24749588	23.04221214	1.83340000
O	29.49498776	12.55516607	1.83340000
O	29.49498776	23.04221214	1.83340000
O	18.05936588	12.55516607	1.83340000
O	18.05936588	23.04221214	1.83340000
O	12.34155588	17.79868607	1.83340000
O	12.34155588	28.28573214	1.83340000
O	27.58904776	17.79868607	1.83340000
O	27.58904776	28.28573214	1.83340000
O	16.15343588	17.79868607	1.83340000
O	16.15343588	28.28573214	1.83340000
O	19.96530588	17.79868607	1.83340000
O	19.96530588	28.28573214	1.83340000
O	12.34155588	14.83053607	2.72118000
O	12.34155588	25.31758214	2.72118000
O	27.58904776	14.83053607	2.72118000
O	27.58904776	25.31758214	2.72118000
O	16.15343588	14.83053607	2.72118000
O	16.15343588	25.31758214	2.72118000
O	19.96530588	14.83053607	2.72118000
O	19.96530588	25.31758214	2.72118000
O	10.43561588	20.07405607	2.72118000
O	10.43561588	30.56110214	2.72118000
O	25.68310776	20.07405607	2.72118000
O	25.68310776	30.56110214	2.72118000
O	14.24749588	20.07405607	2.72118000
O	14.24749588	30.56110214	2.72118000
O	29.49498776	20.07405607	2.72118000
O	29.49498776	30.56110214	2.72118000
O	18.05936588	20.07405607	2.72118000
O	18.05936588	30.56110214	2.72118000
Ti	6.58347140	9.29891197	4.79096433
Ti	6.65048926	6.39476643	5.51853199
Ti	2.82651785	9.28837365	4.80704674
Ti	0.90443038	3.96973372	4.80061711
Ti	4.72601545	4.02851137	4.71169406
Ti	0.92421340	1.04429831	5.57675817
Ti	4.70662870	1.13620244	5.50072269
Ti	2.72087050	6.39725457	5.47829988
O	6.65583445	7.47206882	3.98335308
O	6.66325088	4.43858771	4.84643166
O	6.68981483	0.66035332	5.55805171
O	6.79437267	8.04123839	6.33209191
O	2.81267344	7.43679854	3.97326654
O	0.98101464	2.17581492	4.01529093
O	4.57443994	2.19361554	3.91833645
O	0.95018832	9.58788185	4.77938193
O	4.62981729	9.71029863	4.75869050
O	2.79172002	4.48000314	4.77831169
O	2.78139000	0.52216133	5.58545822
O	0.93728552	5.74259333	5.74564166
O	4.71224249	5.96184898	5.50053991
O	0.81908219	2.75438965	6.38750436
O	4.63278464	2.98447699	6.34083700
O	2.74154473	8.05190305	6.39456242
Ti	21.90744503	9.20486255	4.81411276
Ti	8.50741624	4.04770136	4.72411610
Ti	23.86563235	3.92669006	4.84015390
Ti	8.65363383	1.11579638	5.51676375
Ti	23.80819227	0.99811623	5.47919566
Ti	21.99305555	6.30420679	5.52704518
Ti	10.42126923	9.21768928	4.76452973
Ti	25.68369020	9.19684390	4.91288697
Ti	14.21899092	9.17693209	4.71501976
Ti	29.41338002	9.20754545	4.76030095
Ti	18.12644754	9.13898817	4.68459365
Ti	12.40520481	3.99326042	4.70480138
Ti	27.61717236	3.92868563	4.75392477
Ti	16.25086219	4.04337089	4.70414584
Ti	19.97998164	3.90709497	4.70635778
Ti	12.44093970	1.10567750	5.52238419
Ti	27.68570684	1.08744383	5.50419601
Ti	16.26050855	1.10367724	5.55825127
Ti	20.03345569	1.06517711	5.61707803
Ti	10.50142750	6.31100285	5.44543592
Ti	25.76699814	6.27406574	5.51920397
Ti	14.37846118	6.26023598	5.47631285
Ti	29.59785294	6.31222137	5.57487490
Ti	18.12086885	6.30353834	5.56601998
O	21.80556277	7.37956307	3.93911483
O	8.61396641	2.12943700	3.89833973
O	23.85286143	2.11180983	3.99363596
O	8.48576224	9.75226291	4.71305527
O	23.79454125	9.63587343	4.89383063
O	22.01291934	4.39459735	4.91667253
O	21.90635385	0.59813126	5.83137094
O	8.55753881	5.92987168	5.69587436
O	23.82246055	5.85093291	5.70524959
O	8.66284224	2.88876883	6.24841425
O	23.85435287	2.71774966	6.45176015
O	21.88372440	8.03819489	6.43090374
O	10.48740155	7.36261733	3.95667252
O	25.65936484	7.38682819	3.95169597
O	14.44802134	7.26988813	3.98043916
O	29.68073564	7.31521612	3.91965455
O	18.06988322	7.34146700	4.00163443
O	12.57233947	2.00921952	3.92395706
O	27.44743657	2.14195391	3.93596967
O	16.41614224	2.10853984	3.92137867
O	19.95530433	2.10463377	3.99332310
O	12.33772174	9.65684145	4.77642694
O	27.49802606	9.65775032	4.84428838
O	16.18914299	9.60034279	4.72986201
O	19.98291717	9.79587403	4.75662290
O	10.47379427	4.48081082	4.75775900
O	25.66646001	4.48284959	4.73169399
O	14.31534756	4.35696792	4.77507529
O	29.46859121	4.35503226	4.77938124
O	18.10800926	4.36438649	4.70572031
O	10.55888156	0.67064674	5.67423370
O	25.83748729	0.57593785	5.77100445
O	14.38378054	0.49684736	5.77159771
O	29.56676497	0.52782016	5.75411516
O	18.13504383	0.56200079	5.94271985
O	12.42052839	5.77817069	5.79753817
O	27.67074333	5.79921601	5.63561660
O	16.24346773	5.82256359	5.76557648
O	20.09923061	5.71277260	5.84427261
O	12.42521654	2.83169058	6.34639171
O	27.50090600	2.73276233	6.35495417
O	16.17159220	2.96394559	6.28054706
O	20.19796012	2.81121543	6.46484387
O	10.45327641	8.07341237	6.40337479
O	25.75253628	8.01051405	6.47483124
O	14.22818254	8.07011041	6.36200721
O	29.60773119	8.05266108	6.38924720
O	18.15160021	8.00858267	6.44821325
Ti	6.67524765	19.75565177	4.74006013
Ti	6.71556651	30.24256473	4.70776908
Ti	6.70769424	16.77066322	5.58972457
Ti	6.55182215	27.34149989	5.53919697
Ti	2.81700264	19.75163297	4.75544874
Ti	2.81843907	30.16189768	4.73922774
Ti	0.80661528	14.25201132	4.73000471
Ti	0.88698960	24.91879147	4.70382088
Ti	4.54622592	14.44940081	4.75343398
Ti	4.71376536	25.05802572	4.69558921
Ti	0.80148599	11.41967917	5.51168372
Ti	0.88432453	22.02444231	5.52384847
Ti	4.82024151	11.56299270	5.50056613
Ti	4.70889816	22.07413760	5.53051320
Ti	2.81825120	16.81507419	5.55094855
Ti	2.73573066	27.22896368	5.40367572
O	6.77611344	17.82204710	4.02990820
O	6.63413413	28.42341957	3.93862763
O	6.62141861	14.90973128	4.72651948
O	6.57966118	25.46453784	4.85134410
O	6.60878394	11.09370222	5.91532456
O	6.62400504	21.65042665	5.76650928
O	6.76769141	18.61206332	6.39632177
O	6.75312627	29.08218428	6.32229962
O	2.75075204	17.80520805	3.88473229
O	2.65931522	28.31181575	3.91372032
O	0.88197950	12.55025504	3.90088361
O	1.09999657	23.09340732	3.98313840
O	4.48931998	12.58766426	4.03633121
O	4.51498810	23.11052648	3.97854100
O	0.87262683	20.09010518	4.83380507
O	0.91282945	30.65240371	4.65428247
O	4.76032958	20.23381945	4.72757257
O	4.75424074	30.71816431	4.79196057
O	2.55142258	14.99973846	4.95010564
O	2.80782524	25.37720309	4.73021867
O	2.72561009	11.09232242	5.78213705
O	2.75947068	21.55479562	5.72714045
O	0.91433619	16.90422009	5.92593073
O	0.85334590	26.86191426	5.71136070
O	4.72174408	16.41737064	5.68569338
O	4.64393562	26.88615213	5.66239522
O	0.67757309	13.18831637	6.33212432
O	0.95801983	23.79955586	6.36550315
O	4.87326620	13.31747827	6.32544440
O	4.60856015	23.84539453	6.41049931
O	2.94518365	18.65694578	6.31321822
O	3.15187992	29.06171926	6.25397591
Ti	21.84829022	19.59713573	4.84793098
Ti	21.93763455	30.21530723	4.68868493
Ti	8.48785860	14.44392639	4.70584348
Ti	8.48809756	24.87505767	4.72647428
Ti	23.83967247	14.43228909	4.64002246
Ti	23.84220111	24.90020489	4.86216986
Ti	8.55154179	11.54962778	5.61631035
Ti	8.55118290	21.97162522	5.45474222
Ti	23.72198986	11.54007067	5.45036219
Ti	23.74432681	21.91283330	5.48134048
Ti	21.80979206	16.72554638	5.34627303
Ti	21.80995500	27.32790269	5.61522166
Ti	10.41624630	19.65980490	4.84348095
Ti	10.51890310	30.18227359	4.70724439
Ti	25.72981194	19.72625776	4.82108083
Ti	25.74930524	30.22086171	4.84923014
Ti	14.21825117	19.61175187	4.74496719
Ti	14.31820319	30.20473723	4.83947699
Ti	29.40476787	19.78548008	4.78384488
Ti	29.54706865	30.17118461	4.77694218
Ti	17.99935642	19.76113184	4.77489609
Ti	18.14822760	30.19963920	4.70141197
Ti	12.28207803	14.35515761	4.74496614
Ti	12.25658169	24.94066290	4.71909471
Ti	27.63370609	14.53191988	4.71321941
Ti	27.54500671	24.97522465	4.71915969
Ti	16.00789718	14.47068735	4.70268631
Ti	16.02824395	25.00574540	4.78752040
Ti	19.94402255	14.43271822	4.68363536
Ti	19.99378584	24.96619345	4.82238041
Ti	12.41220377	11.47671839	5.59056230
Ti	12.37152599	22.05531240	5.52399692
Ti	27.58514788	11.53506189	5.58957993
Ti	27.54433521	22.08831584	5.62675120
Ti	16.14450054	11.42337608	5.45238041
Ti	16.08190037	22.04587454	5.39922061
Ti	19.99617733	11.58776676	5.63537069
Ti	19.88146883	22.05127455	5.44214488
Ti	10.41981346	16.75131168	5.52804278
Ti	10.47143580	27.24618899	5.46988103
Ti	25.69727853	16.74010673	5.45154300
Ti	25.74712450	27.30485054	5.53594763
Ti	14.21047214	16.76391662	5.82098791
Ti	14.21431362	27.28154590	5.68278765
Ti	29.41687450	16.87856345	5.57686849
Ti	29.49763890	27.23047029	5.39867103
Ti	18.00656660	16.80000609	5.36108702
Ti	18.00782502	27.23515378	5.55630565
O	21.93973692	17.79285338	3.82681851
O	21.86492070	28.33628222	4.02034606
O	8.46131166	12.64833569	3.95318611
O	8.49421608	23.08036401	3.88471781
O	23.69082825	12.55364263	3.95379612
O	23.89525792	23.08565657	3.97190947
O	8.52635326	20.20593133	4.76651463
O	8.65599679	30.68917780	4.82511401
O	23.78061338	20.01400288	4.93260137
O	23.82866736	30.64646929	4.87882750
O	21.86453469	14.78621905	4.79891458
O	21.86113624	25.42249769	4.72648089
O	21.86822663	10.98949164	5.83168452
O	21.81844891	21.53738660	5.73806142
O	8.60077592	16.38066649	5.95999414
O	8.51019776	26.68786861	5.82297309
O	23.75450514	16.27578290	5.66897238
O	23.75613274	26.80835847	5.87631244
O	8.73541625	13.39329529	6.28219965
O	8.57574171	23.77592844	6.31390879
O	23.72599144	13.27089165	6.41902078
O	23.81240780	23.69096807	6.35010092
O	21.88783948	18.36940693	6.29880499
O	21.73966030	29.11816215	6.31466834
O	10.29756719	17.84290425	4.01254262
O	10.34811649	28.37031590	3.93383585
O	25.73269264	17.76710312	3.87060560
O	25.79633933	28.32637711	3.92397031
O	14.45102022	17.80999101	4.04381987
O	14.15526432	28.25237952	4.02814252
O	29.36904839	17.90258101	3.98257110
O	29.53607919	28.32591053	3.86288963
O	18.07808431	17.91897055	3.87353338
O	18.17575416	28.29010358	4.00171342
O	12.44840745	12.40413375	3.93863594
O	12.30962323	23.03672574	3.90179652
O	27.61504855	12.58680125	4.02082406
O	27.36925089	23.12898379	3.93723727
O	16.27148315	12.62310439	3.95580244
O	16.09040487	23.09105411	3.90251464
O	19.97187824	12.52914476	3.95530401
O	19.82093046	23.17789600	3.88823281
O	12.27155611	20.12980006	4.69872355
O	12.36243873	30.69661484	4.80321119
O	27.52749900	20.31233113	4.82686304
O	27.60393805	30.70564746	4.78855756
O	16.08747907	20.01860001	4.80337375
O	16.26298831	30.67765603	4.79903253
O	19.95467614	20.05970062	4.85306960
O	19.96395428	30.70950113	4.74330408
O	10.46453079	14.91817387	4.64669142
O	10.37400759	25.32681618	4.60630572
O	25.72833570	14.94339933	4.79888907
O	25.71269045	25.47230279	4.70775786
O	14.10770855	14.92129838	4.90967510
O	14.15137816	25.42340591	4.94931338
O	29.56531410	14.96937175	4.95388843
O	29.53562664	25.40687680	4.70382245
O	18.02139365	14.85006101	4.69626913
O	18.01359641	25.34377137	4.87181358
O	10.43158300	11.00834486	5.83669169
O	10.47561093	21.53190755	5.85280284
O	25.65323267	11.09914584	5.92634384
O	25.62254232	21.44585631	6.01880479
O	14.28772906	10.93196750	5.92816069
O	14.25265327	21.53075787	5.78746593
O	29.43799148	10.91689578	5.81116489
O	29.45536337	21.61407935	5.77655990
O	18.08990247	11.08464021	5.72009204
O	17.98829372	21.46418612	5.70305385
O	12.21359956	16.09428211	5.82307873
O	12.28474088	26.70685288	5.93130042
O	27.54230733	16.32823572	5.70104175
O	27.66838324	26.80127638	5.74080119
O	16.16350882	16.29999258	5.68808557
O	16.17434568	26.80441321	5.84549963
O	19.96015739	16.34933922	5.63275827
O	19.96187635	26.92018973	5.89612863
O	12.15331453	13.21053025	6.29277106
O	12.23256448	23.69751613	6.30859545
O	27.65963542	13.31961485	6.41297326
O	27.65913913	23.90095456	6.29882526
O	16.01000952	13.27636859	6.27925876
O	15.95157218	23.72656969	6.30426497
O	19.80063881	13.29819742	6.40219038
O	19.83687894	23.72052042	6.34467068
O	10.74329589	18.55275141	6.38500821
O	10.35101290	28.92516745	6.35302986
O	25.68716065	18.51154503	6.28171489
O	25.89131014	29.09482900	6.40940552
O	14.03450485	18.69720489	6.39017409
O	14.52109045	29.09690198	6.41884283
O	29.22758739	18.72326552	6.40606731
O	29.52921613	28.99404288	6.27855105
O	18.08833083	18.49376468	6.31054926
O	18.02835534	29.00996847	6.34678497
H	14.12422372	13.88590353	8.05986868
H	14.09276547	14.94638597	11.38148463
H	14.34897021	18.47990079	8.79421363
O	14.34102058	16.07926141	7.56850569
O	14.25465806	14.35586898	8.92374781
C	14.27557129	15.67720123	8.77143006
C	14.26383174	16.57184868	9.92509877
C	14.12035524	16.00331481	11.23446624
C	14.27936598	17.93088524	9.75216552
N	12.92755837	19.58509590	15.39662738
N	15.64617791	22.09393795	17.12080348
N	15.30290606	20.86722397	14.32618081
N	13.08619310	21.03992339	18.06581883
C	21.06915998	22.61878518	14.95430506
C	15.08816474	23.93591680	22.87596118
C	7.42212159	19.86495412	17.25603153
C	18.61381205	22.43666551	14.82231058
C	14.65029057	23.61468210	20.50877172
C	9.76728150	19.28568524	17.51463680
C	19.78705409	24.40361752	13.85844536
C	14.37484016	25.79889070	21.53374268
C	8.11126566	18.09620815	18.79022949
C	13.95451580	19.15587504	13.23841149
C	17.28604659	21.95354329	15.24396054
C	14.52383882	22.75698898	19.24302049
C	11.19945553	19.68828349	17.21763892
C	14.99678162	20.11557761	13.23107778
C	16.59656052	21.31505907	14.23883210
C	13.27732876	22.01882292	19.05813583
C	11.85286419	20.47743894	18.16014061
C	16.15431410	20.12739794	12.37084158
C	17.16507920	20.76115894	13.01291382
C	12.12370906	22.01214140	19.89666069
C	11.21972442	21.15426155	19.31114721
C	13.03595306	18.86187801	14.22756491
C	16.83021015	22.43005951	16.50486592
C	15.49351444	22.90299148	18.25305096
C	11.78953152	19.16085211	16.04664429
C	12.03694602	17.82351984	14.21201990
C	17.44701227	23.47009079	17.29690390
C	16.64470867	23.77359980	18.36527394
C	11.24567302	17.96959181	15.33804767
H	11.87324172	17.12592985	13.40688352
H	18.37273352	23.99147762	16.96424664
H	16.71778633	24.66100165	18.98964281
H	10.46178182	17.28659669	15.57743018
H	16.06874144	19.72431279	11.35525357
H	18.08751579	21.05854783	12.52337217
H	11.98866237	22.50454132	20.85817712
H	10.20691078	20.97647123	19.64040801
H	19.79210670	25.37847823	13.38557217
H	14.08230020	26.87923701	21.46733032
H	7.84102586	17.23343923	19.43192718
H	22.03554140	22.19884904	15.25557659
H	15.45811998	23.45512899	23.82091210
H	6.59951922	20.46580043	16.86064408
H	14.59041378	20.95834298	15.05110283
H	13.83128425	20.69449483	17.46440763
C	22.16706955	24.80318366	14.51243199
H	22.30022711	25.52616922	13.68691933
H	23.13946062	24.30644784	14.78668893
H	22.05274939	25.40323873	15.36208053
C	19.92763798	20.55808521	15.85969792
H	20.92076929	20.39670711	16.21658364
H	19.71772196	19.70609920	15.17878566
H	19.25044581	20.56542501	16.74343064
C	17.34848699	24.39568587	13.63919732
H	17.69788121	25.31759357	13.09102315
H	16.75517216	24.83664881	14.48227532
H	16.63830147	23.76319324	13.01679108
C	10.52881069	17.46808584	19.00936904
H	11.39827045	17.97524370	19.51346879
H	11.03876613	16.88936313	18.23239498
H	10.15632001	16.77500049	19.72573505
C	9.17829152	21.08826188	15.86851928
H	9.60742415	20.58855301	15.01230228
H	9.98619831	21.75494780	16.17856663
H	8.35203314	21.74227452	15.55884330
C	5.72323504	18.66963468	18.63018830
H	5.26374754	19.65952721	18.96133907
H	5.58985548	17.98274246	19.44091598
H	5.14842905	18.25078098	17.78300354
C	13.82215801	25.58664711	19.12655825
H	14.65104055	26.12553190	18.74401087
H	13.08978660	26.33964697	19.17843516
H	13.56256347	24.71256556	18.47663493
C	15.63212430	21.67835457	21.73365628
H	16.42497267	21.65326473	21.00060386
H	14.86389795	20.93941631	21.52606081
H	16.15040634	21.42050612	22.68395604
C	14.99637570	26.28253134	23.81557895
H	14.10902260	26.96198452	23.95693290
H	15.94633885	26.83181488	23.55345374
H	15.10885752	25.90211092	24.82203108
C	20.96944274	23.91687884	14.39351524
C	19.85248633	21.90998239	15.16910477
C	18.58370238	23.68252317	14.07908970
C	14.23570917	24.93983966	20.40755901
C	15.07824798	23.05398606	21.75722576
C	14.71407845	25.27022775	22.79661519
C	9.43866426	18.33564649	18.48821189
C	8.77027250	20.06760910	16.91799403
C	7.10089573	18.88587685	18.24545907
H	14.04234803	16.43894215	13.36462751
H	13.92845041	19.86095272	10.61971761
C	14.01123919	18.25287156	12.06852195
C	14.15295919	16.83160651	12.32801659
C	14.09229716	18.82028367	10.82307351

Ti O H C N 0
6-31G*
****

