%chk=test.chk
%mem=24GB
%nproc=12
#p b3lyp/6-31G*

title

0 1
Ti	2.81187400	1.58260000	1.10335000
Ti	0.90594400	6.82612000	1.10336000
Ti	4.71781400	6.82612000	1.10336000
Ti	0.90594400	3.85797000	1.99114000
Ti	4.71781400	3.85797000	1.99114000
Ti	2.81187400	9.10149000	1.99114000
O	2.81187400	10.19857000	0.37332000
O	0.90594400	4.95504000	0.37332000
O	4.71781400	4.95504000	0.37332000
O	0.90594400	1.98690000	1.26110000
O	4.71781400	1.98690000	1.26110000
O	2.81187400	7.23042000	1.26110000
O	2.81187400	3.45367000	1.83339000
O	0.90594400	8.69720000	1.83340000
O	4.71781400	8.69720000	1.83340000
O	0.90594400	5.72904000	2.72118000
O	4.71781400	5.72904000	2.72118000
O	2.81187400	0.48552000	2.72118000
Ti	6.62374588	1.58260000	1.10335000
Ti	21.87123776	1.58260000	1.10335000
Ti	8.52968588	6.82612000	1.10336000
Ti	23.77717776	6.82612000	1.10336000
Ti	8.52968588	3.85797000	1.99114000
Ti	23.77717776	3.85797000	1.99114000
Ti	6.62374588	9.10149000	1.99114000
Ti	21.87123776	9.10149000	1.99114000
Ti	10.43561588	1.58260000	1.10335000
Ti	25.68310776	1.58260000	1.10335000
Ti	14.24749588	1.58260000	1.10335000
Ti	29.49498776	1.58260000	1.10335000
Ti	18.05936588	1.58260000	1.10335000
Ti	12.34155588	6.82612000	1.10336000
Ti	27.58904776	6.82612000	1.10336000
Ti	16.15343588	6.82612000	1.10336000
Ti	19.96530588	6.82612000	1.10336000
Ti	12.34155588	3.85797000	1.99114000
Ti	27.58904776	3.85797000	1.99114000
Ti	16.15343588	3.85797000	1.99114000
Ti	19.96530588	3.85797000	1.99114000
Ti	10.43561588	9.10149000	1.99114000
Ti	25.68310776	9.10149000	1.99114000
Ti	14.24749588	9.10149000	1.99114000
Ti	29.49498776	9.10149000	1.99114000
Ti	18.05936588	9.10149000	1.99114000
O	6.62374588	10.19857000	0.37332000
O	21.87123776	10.19857000	0.37332000
O	8.52968588	4.95504000	0.37332000
O	23.77717776	4.95504000	0.37332000
O	8.52968588	1.98690000	1.26110000
O	23.77717776	1.98690000	1.26110000
O	6.62374588	7.23042000	1.26110000
O	21.87123776	7.23042000	1.26110000
O	6.62374588	3.45367000	1.83339000
O	21.87123776	3.45367000	1.83339000
O	8.52968588	8.69720000	1.83340000
O	23.77717776	8.69720000	1.83340000
O	8.52968588	5.72904000	2.72118000
O	23.77717776	5.72904000	2.72118000
O	6.62374588	0.48552000	2.72118000
O	21.87123776	0.48552000	2.72118000
O	10.43561588	10.19857000	0.37332000
O	25.68310776	10.19857000	0.37332000
O	14.24749588	10.19857000	0.37332000
O	29.49498776	10.19857000	0.37332000
O	18.05936588	10.19857000	0.37332000
O	12.34155588	4.95504000	0.37332000
O	27.58904776	4.95504000	0.37332000
O	16.15343588	4.95504000	0.37332000
O	19.96530588	4.95504000	0.37332000
O	12.34155588	1.98690000	1.26110000
O	27.58904776	1.98690000	1.26110000
O	16.15343588	1.98690000	1.26110000
O	19.96530588	1.98690000	1.26110000
O	10.43561588	7.23042000	1.26110000
O	25.68310776	7.23042000	1.26110000
O	14.24749588	7.23042000	1.26110000
O	29.49498776	7.23042000	1.26110000
O	18.05936588	7.23042000	1.26110000
O	10.43561588	3.45367000	1.83339000
O	25.68310776	3.45367000	1.83339000
O	14.24749588	3.45367000	1.83339000
O	29.49498776	3.45367000	1.83339000
O	18.05936588	3.45367000	1.83339000
O	12.34155588	8.69720000	1.83340000
O	27.58904776	8.69720000	1.83340000
O	16.15343588	8.69720000	1.83340000
O	19.96530588	8.69720000	1.83340000
O	12.34155588	5.72904000	2.72118000
O	27.58904776	5.72904000	2.72118000
O	16.15343588	5.72904000	2.72118000
O	19.96530588	5.72904000	2.72118000
O	10.43561588	0.48552000	2.72118000
O	25.68310776	0.48552000	2.72118000
O	14.24749588	0.48552000	2.72118000
O	29.49498776	0.48552000	2.72118000
O	18.05936588	0.48552000	2.72118000
Ti	2.81187400	12.06964607	1.10335000
Ti	2.81187400	22.55669214	1.10335000
Ti	0.90594400	17.31316607	1.10336000
Ti	0.90594400	27.80021214	1.10336000
Ti	4.71781400	17.31316607	1.10336000
Ti	4.71781400	27.80021214	1.10336000
Ti	0.90594400	14.34501607	1.99114000
Ti	0.90594400	24.83206214	1.99114000
Ti	4.71781400	14.34501607	1.99114000
Ti	4.71781400	24.83206214	1.99114000
Ti	2.81187400	19.58853607	1.99114000
Ti	2.81187400	30.07558214	1.99114000
O	2.81187400	20.68561607	0.37332000
O	2.81187400	31.17266214	0.37332000
O	0.90594400	15.44208607	0.37332000
O	0.90594400	25.92913214	0.37332000
O	4.71781400	15.44208607	0.37332000
O	4.71781400	25.92913214	0.37332000
O	0.90594400	12.47394607	1.26110000
O	0.90594400	22.96099214	1.26110000
O	4.71781400	12.47394607	1.26110000
O	4.71781400	22.96099214	1.26110000
O	2.81187400	17.71746607	1.26110000
O	2.81187400	28.20451214	1.26110000
O	2.81187400	13.94071607	1.83339000
O	2.81187400	24.42776214	1.83339000
O	0.90594400	19.18424607	1.83340000
O	0.90594400	29.67129214	1.83340000
O	4.71781400	19.18424607	1.83340000
O	4.71781400	29.67129214	1.83340000
O	0.90594400	16.21608607	2.72118000
O	0.90594400	26.70313214	2.72118000
O	4.71781400	16.21608607	2.72118000
O	4.71781400	26.70313214	2.72118000
O	2.81187400	10.97256607	2.72118000
O	2.81187400	21.45961214	2.72118000
Ti	6.62374588	12.06964607	1.10335000
Ti	6.62374588	22.55669214	1.10335000
Ti	21.87123776	12.06964607	1.10335000
Ti	21.87123776	22.55669214	1.10335000
Ti	8.52968588	17.31316607	1.10336000
Ti	8.52968588	27.80021214	1.10336000
Ti	23.77717776	17.31316607	1.10336000
Ti	23.77717776	27.80021214	1.10336000
Ti	8.52968588	14.34501607	1.99114000
Ti	8.52968588	24.83206214	1.99114000
Ti	23.77717776	14.34501607	1.99114000
Ti	23.77717776	24.83206214	1.99114000
Ti	6.62374588	19.58853607	1.99114000
Ti	6.62374588	30.07558214	1.99114000
Ti	21.87123776	19.58853607	1.99114000
Ti	21.87123776	30.07558214	1.99114000
Ti	10.43561588	12.06964607	1.10335000
Ti	10.43561588	22.55669214	1.10335000
Ti	25.68310776	12.06964607	1.10335000
Ti	25.68310776	22.55669214	1.10335000
Ti	14.24749588	12.06964607	1.10335000
Ti	14.24749588	22.55669214	1.10335000
Ti	29.49498776	12.06964607	1.10335000
Ti	29.49498776	22.55669214	1.10335000
Ti	18.05936588	12.06964607	1.10335000
Ti	18.05936588	22.55669214	1.10335000
Ti	12.34155588	17.31316607	1.10336000
Ti	12.34155588	27.80021214	1.10336000
Ti	27.58904776	17.31316607	1.10336000
Ti	27.58904776	27.80021214	1.10336000
Ti	16.15343588	17.31316607	1.10336000
Ti	16.15343588	27.80021214	1.10336000
Ti	19.96530588	17.31316607	1.10336000
Ti	19.96530588	27.80021214	1.10336000
Ti	12.34155588	14.34501607	1.99114000
Ti	12.34155588	24.83206214	1.99114000
Ti	27.58904776	14.34501607	1.99114000
Ti	27.58904776	24.83206214	1.99114000
Ti	16.15343588	14.34501607	1.99114000
Ti	16.15343588	24.83206214	1.99114000
Ti	19.96530588	14.34501607	1.99114000
Ti	19.96530588	24.83206214	1.99114000
Ti	10.43561588	19.58853607	1.99114000
Ti	10.43561588	30.07558214	1.99114000
Ti	25.68310776	19.58853607	1.99114000
Ti	25.68310776	30.07558214	1.99114000
Ti	14.24749588	19.58853607	1.99114000
Ti	14.24749588	30.07558214	1.99114000
Ti	29.49498776	19.58853607	1.99114000
Ti	29.49498776	30.07558214	1.99114000
Ti	18.05936588	19.58853607	1.99114000
Ti	18.05936588	30.07558214	1.99114000
O	6.62374588	20.68561607	0.37332000
O	6.62374588	31.17266214	0.37332000
O	21.87123776	20.68561607	0.37332000
O	21.87123776	31.17266214	0.37332000
O	8.52968588	15.44208607	0.37332000
O	8.52968588	25.92913214	0.37332000
O	23.77717776	15.44208607	0.37332000
O	23.77717776	25.92913214	0.37332000
O	8.52968588	12.47394607	1.26110000
O	8.52968588	22.96099214	1.26110000
O	23.77717776	12.47394607	1.26110000
O	23.77717776	22.96099214	1.26110000
O	6.62374588	17.71746607	1.26110000
O	6.62374588	28.20451214	1.26110000
O	21.87123776	17.71746607	1.26110000
O	21.87123776	28.20451214	1.26110000
O	6.62374588	13.94071607	1.83339000
O	6.62374588	24.42776214	1.83339000
O	21.87123776	13.94071607	1.83339000
O	21.87123776	24.42776214	1.83339000
O	8.52968588	19.18424607	1.83340000
O	8.52968588	29.67129214	1.83340000
O	23.77717776	19.18424607	1.83340000
O	23.77717776	29.67129214	1.83340000
O	8.52968588	16.21608607	2.72118000
O	8.52968588	26.70313214	2.72118000
O	23.77717776	16.21608607	2.72118000
O	23.77717776	26.70313214	2.72118000
O	6.62374588	10.97256607	2.72118000
O	6.62374588	21.45961214	2.72118000
O	21.87123776	10.97256607	2.72118000
O	21.87123776	21.45961214	2.72118000
O	10.43561588	20.68561607	0.37332000
O	10.43561588	31.17266214	0.37332000
O	25.68310776	20.68561607	0.37332000
O	25.68310776	31.17266214	0.37332000
O	14.24749588	20.68561607	0.37332000
O	14.24749588	31.17266214	0.37332000
O	29.49498776	20.68561607	0.37332000
O	29.49498776	31.17266214	0.37332000
O	18.05936588	20.68561607	0.37332000
O	18.05936588	31.17266214	0.37332000
O	12.34155588	15.44208607	0.37332000
O	12.34155588	25.92913214	0.37332000
O	27.58904776	15.44208607	0.37332000
O	27.58904776	25.92913214	0.37332000
O	16.15343588	15.44208607	0.37332000
O	16.15343588	25.92913214	0.37332000
O	19.96530588	15.44208607	0.37332000
O	19.96530588	25.92913214	0.37332000
O	12.34155588	12.47394607	1.26110000
O	12.34155588	22.96099214	1.26110000
O	27.58904776	12.47394607	1.26110000
O	27.58904776	22.96099214	1.26110000
O	16.15343588	12.47394607	1.26110000
O	16.15343588	22.96099214	1.26110000
O	19.96530588	12.47394607	1.26110000
O	19.96530588	22.96099214	1.26110000
O	10.43561588	17.71746607	1.26110000
O	10.43561588	28.20451214	1.26110000
O	25.68310776	17.71746607	1.26110000
O	25.68310776	28.20451214	1.26110000
O	14.24749588	17.71746607	1.26110000
O	14.24749588	28.20451214	1.26110000
O	29.49498776	17.71746607	1.26110000
O	29.49498776	28.20451214	1.26110000
O	18.05936588	17.71746607	1.26110000
O	18.05936588	28.20451214	1.26110000
O	10.43561588	13.94071607	1.83339000
O	10.43561588	24.42776214	1.83339000
O	25.68310776	13.94071607	1.83339000
O	25.68310776	24.42776214	1.83339000
O	14.24749588	13.94071607	1.83339000
O	14.24749588	24.42776214	1.83339000
O	29.49498776	13.94071607	1.83339000
O	29.49498776	24.42776214	1.83339000
O	18.05936588	13.94071607	1.83339000
O	18.05936588	24.42776214	1.83339000
O	12.34155588	19.18424607	1.83340000
O	12.34155588	29.67129214	1.83340000
O	27.58904776	19.18424607	1.83340000
O	27.58904776	29.67129214	1.83340000
O	16.15343588	19.18424607	1.83340000
O	16.15343588	29.67129214	1.83340000
O	19.96530588	19.18424607	1.83340000
O	19.96530588	29.67129214	1.83340000
O	12.34155588	16.21608607	2.72118000
O	12.34155588	26.70313214	2.72118000
O	27.58904776	16.21608607	2.72118000
O	27.58904776	26.70313214	2.72118000
O	16.15343588	16.21608607	2.72118000
O	16.15343588	26.70313214	2.72118000
O	19.96530588	16.21608607	2.72118000
O	19.96530588	26.70313214	2.72118000
O	10.43561588	10.97256607	2.72118000
O	10.43561588	21.45961214	2.72118000
O	25.68310776	10.97256607	2.72118000
O	25.68310776	21.45961214	2.72118000
O	14.24749588	10.97256607	2.72118000
O	14.24749588	21.45961214	2.72118000
O	29.49498776	10.97256607	2.72118000
O	29.49498776	21.45961214	2.72118000
O	18.05936588	10.97256607	2.72118000
O	18.05936588	21.45961214	2.72118000
Ti	2.81187400	0.19704000	4.65450000
Ti	0.90594400	5.44057000	4.65450000
Ti	4.71781400	5.44057000	4.65450000
Ti	0.90594400	2.47241000	5.54228000
Ti	4.71781400	2.47241000	5.54228000
Ti	2.81187400	7.71594000	5.54229000
O	2.81187400	8.81302000	3.92446000
O	0.90594400	3.56949000	3.92446000
O	4.71781400	3.56949000	3.92446000
O	0.90594400	0.60134000	4.81224000
O	4.71781400	0.60134000	4.81224000
O	2.81187400	5.84486000	4.81225000
O	2.81187400	2.06812000	5.38454000
O	0.90594400	7.31164000	5.38454000
O	4.71781400	7.31164000	5.38454000
O	0.90594400	4.34349000	6.27232000
O	4.71781400	4.34349000	6.27232000
O	2.81187400	9.58701000	6.27232000
Ti	6.62374588	0.19704000	4.65450000
Ti	21.87123776	0.19704000	4.65450000
Ti	8.52968588	5.44057000	4.65450000
Ti	23.77717776	5.44057000	4.65450000
Ti	8.52968588	2.47241000	5.54228000
Ti	23.77717776	2.47241000	5.54228000
Ti	6.62374588	7.71594000	5.54229000
Ti	21.87123776	7.71594000	5.54229000
Ti	10.43561588	0.19704000	4.65450000
Ti	25.68310776	0.19704000	4.65450000
Ti	14.24749588	0.19704000	4.65450000
Ti	29.49498776	0.19704000	4.65450000
Ti	18.05936588	0.19704000	4.65450000
Ti	12.34155588	5.44057000	4.65450000
Ti	27.58904776	5.44057000	4.65450000
Ti	16.15343588	5.44057000	4.65450000
Ti	19.96530588	5.44057000	4.65450000
Ti	12.34155588	2.47241000	5.54228000
Ti	27.58904776	2.47241000	5.54228000
Ti	16.15343588	2.47241000	5.54228000
Ti	19.96530588	2.47241000	5.54228000
Ti	10.43561588	7.71594000	5.54229000
Ti	25.68310776	7.71594000	5.54229000
Ti	14.24749588	7.71594000	5.54229000
Ti	29.49498776	7.71594000	5.54229000
Ti	18.05936588	7.71594000	5.54229000
O	6.62374588	8.81302000	3.92446000
O	21.87123776	8.81302000	3.92446000
O	8.52968588	3.56949000	3.92446000
O	23.77717776	3.56949000	3.92446000
O	8.52968588	0.60134000	4.81224000
O	23.77717776	0.60134000	4.81224000
O	6.62374588	5.84486000	4.81225000
O	21.87123776	5.84486000	4.81225000
O	6.62374588	2.06812000	5.38454000
O	21.87123776	2.06812000	5.38454000
O	8.52968588	7.31164000	5.38454000
O	23.77717776	7.31164000	5.38454000
O	8.52968588	4.34349000	6.27232000
O	23.77717776	4.34349000	6.27232000
O	6.62374588	9.58701000	6.27232000
O	21.87123776	9.58701000	6.27232000
O	10.43561588	8.81302000	3.92446000
O	25.68310776	8.81302000	3.92446000
O	14.24749588	8.81302000	3.92446000
O	29.49498776	8.81302000	3.92446000
O	18.05936588	8.81302000	3.92446000
O	12.34155588	3.56949000	3.92446000
O	27.58904776	3.56949000	3.92446000
O	16.15343588	3.56949000	3.92446000
O	19.96530588	3.56949000	3.92446000
O	12.34155588	0.60134000	4.81224000
O	27.58904776	0.60134000	4.81224000
O	16.15343588	0.60134000	4.81224000
O	19.96530588	0.60134000	4.81224000
O	10.43561588	5.84486000	4.81225000
O	25.68310776	5.84486000	4.81225000
O	14.24749588	5.84486000	4.81225000
O	29.49498776	5.84486000	4.81225000
O	18.05936588	5.84486000	4.81225000
O	10.43561588	2.06812000	5.38454000
O	25.68310776	2.06812000	5.38454000
O	14.24749588	2.06812000	5.38454000
O	29.49498776	2.06812000	5.38454000
O	18.05936588	2.06812000	5.38454000
O	12.34155588	7.31164000	5.38454000
O	27.58904776	7.31164000	5.38454000
O	16.15343588	7.31164000	5.38454000
O	19.96530588	7.31164000	5.38454000
O	12.34155588	4.34349000	6.27232000
O	27.58904776	4.34349000	6.27232000
O	16.15343588	4.34349000	6.27232000
O	19.96530588	4.34349000	6.27232000
O	10.43561588	9.58701000	6.27232000
O	25.68310776	9.58701000	6.27232000
O	14.24749588	9.58701000	6.27232000
O	29.49498776	9.58701000	6.27232000
O	18.05936588	9.58701000	6.27232000
Ti	2.81187400	10.68408607	4.65450000
Ti	2.81187400	21.17113214	4.65450000
Ti	0.90594400	15.92761607	4.65450000
Ti	0.90594400	26.41466214	4.65450000
Ti	4.71781400	15.92761607	4.65450000
Ti	4.71781400	26.41466214	4.65450000
Ti	0.90594400	12.95945607	5.54228000
Ti	0.90594400	23.44650214	5.54228000
Ti	4.71781400	12.95945607	5.54228000
Ti	4.71781400	23.44650214	5.54228000
Ti	2.81187400	18.20298607	5.54229000
Ti	2.81187400	28.69003214	5.54229000
O	2.81187400	19.30006607	3.92446000
O	2.81187400	29.78711214	3.92446000
O	0.90594400	14.05653607	3.92446000
O	0.90594400	24.54358214	3.92446000
O	4.71781400	14.05653607	3.92446000
O	4.71781400	24.54358214	3.92446000
O	0.90594400	11.08838607	4.81224000
O	0.90594400	21.57543214	4.81224000
O	4.71781400	11.08838607	4.81224000
O	4.71781400	21.57543214	4.81224000
O	2.81187400	16.33190607	4.81225000
O	2.81187400	26.81895214	4.81225000
O	2.81187400	12.55516607	5.38454000
O	2.81187400	23.04221214	5.38454000
O	0.90594400	17.79868607	5.38454000
O	0.90594400	28.28573214	5.38454000
O	4.71781400	17.79868607	5.38454000
O	4.71781400	28.28573214	5.38454000
O	0.90594400	14.83053607	6.27232000
O	0.90594400	25.31758214	6.27232000
O	4.71781400	14.83053607	6.27232000
O	4.71781400	25.31758214	6.27232000
O	2.81187400	20.07405607	6.27232000
O	2.81187400	30.56110214	6.27232000
Ti	6.62374588	10.68408607	4.65450000
Ti	6.62374588	21.17113214	4.65450000
Ti	21.87123776	10.68408607	4.65450000
Ti	21.87123776	21.17113214	4.65450000
Ti	8.52968588	15.92761607	4.65450000
Ti	8.52968588	26.41466214	4.65450000
Ti	23.77717776	15.92761607	4.65450000
Ti	23.77717776	26.41466214	4.65450000
Ti	8.52968588	12.95945607	5.54228000
Ti	8.52968588	23.44650214	5.54228000
Ti	23.77717776	12.95945607	5.54228000
Ti	23.77717776	23.44650214	5.54228000
Ti	6.62374588	18.20298607	5.54229000
Ti	6.62374588	28.69003214	5.54229000
Ti	21.87123776	18.20298607	5.54229000
Ti	21.87123776	28.69003214	5.54229000
Ti	10.43561588	10.68408607	4.65450000
Ti	10.43561588	21.17113214	4.65450000
Ti	25.68310776	10.68408607	4.65450000
Ti	25.68310776	21.17113214	4.65450000
Ti	14.24749588	10.68408607	4.65450000
Ti	14.24749588	21.17113214	4.65450000
Ti	29.49498776	10.68408607	4.65450000
Ti	29.49498776	21.17113214	4.65450000
Ti	18.05936588	10.68408607	4.65450000
Ti	18.05936588	21.17113214	4.65450000
Ti	12.34155588	15.92761607	4.65450000
Ti	12.34155588	26.41466214	4.65450000
Ti	27.58904776	15.92761607	4.65450000
Ti	27.58904776	26.41466214	4.65450000
Ti	16.15343588	15.92761607	4.65450000
Ti	16.15343588	26.41466214	4.65450000
Ti	19.96530588	15.92761607	4.65450000
Ti	19.96530588	26.41466214	4.65450000
Ti	12.34155588	12.95945607	5.54228000
Ti	12.34155588	23.44650214	5.54228000
Ti	27.58904776	12.95945607	5.54228000
Ti	27.58904776	23.44650214	5.54228000
Ti	16.15343588	12.95945607	5.54228000
Ti	16.15343588	23.44650214	5.54228000
Ti	19.96530588	12.95945607	5.54228000
Ti	19.96530588	23.44650214	5.54228000
Ti	10.43561588	18.20298607	5.54229000
Ti	10.43561588	28.69003214	5.54229000
Ti	25.68310776	18.20298607	5.54229000
Ti	25.68310776	28.69003214	5.54229000
Ti	14.24749588	18.20298607	5.54229000
Ti	14.24749588	28.69003214	5.54229000
Ti	29.49498776	18.20298607	5.54229000
Ti	29.49498776	28.69003214	5.54229000
Ti	18.05936588	18.20298607	5.54229000
Ti	18.05936588	28.69003214	5.54229000
O	6.62374588	19.30006607	3.92446000
O	6.62374588	29.78711214	3.92446000
O	21.87123776	19.30006607	3.92446000
O	21.87123776	29.78711214	3.92446000
O	8.52968588	14.05653607	3.92446000
O	8.52968588	24.54358214	3.92446000
O	23.77717776	14.05653607	3.92446000
O	23.77717776	24.54358214	3.92446000
O	8.52968588	11.08838607	4.81224000
O	8.52968588	21.57543214	4.81224000
O	23.77717776	11.08838607	4.81224000
O	23.77717776	21.57543214	4.81224000
O	6.62374588	16.33190607	4.81225000
O	6.62374588	26.81895214	4.81225000
O	21.87123776	16.33190607	4.81225000
O	21.87123776	26.81895214	4.81225000
O	6.62374588	12.55516607	5.38454000
O	6.62374588	23.04221214	5.38454000
O	21.87123776	12.55516607	5.38454000
O	21.87123776	23.04221214	5.38454000
O	8.52968588	17.79868607	5.38454000
O	8.52968588	28.28573214	5.38454000
O	23.77717776	17.79868607	5.38454000
O	23.77717776	28.28573214	5.38454000
O	8.52968588	14.83053607	6.27232000
O	8.52968588	25.31758214	6.27232000
O	23.77717776	14.83053607	6.27232000
O	23.77717776	25.31758214	6.27232000
O	6.62374588	20.07405607	6.27232000
O	6.62374588	30.56110214	6.27232000
O	21.87123776	20.07405607	6.27232000
O	21.87123776	30.56110214	6.27232000
O	10.43561588	19.30006607	3.92446000
O	10.43561588	29.78711214	3.92446000
O	25.68310776	19.30006607	3.92446000
O	25.68310776	29.78711214	3.92446000
O	14.24749588	19.30006607	3.92446000
O	14.24749588	29.78711214	3.92446000
O	29.49498776	19.30006607	3.92446000
O	29.49498776	29.78711214	3.92446000
O	18.05936588	19.30006607	3.92446000
O	18.05936588	29.78711214	3.92446000
O	12.34155588	14.05653607	3.92446000
O	12.34155588	24.54358214	3.92446000
O	27.58904776	14.05653607	3.92446000
O	27.58904776	24.54358214	3.92446000
O	16.15343588	14.05653607	3.92446000
O	16.15343588	24.54358214	3.92446000
O	19.96530588	14.05653607	3.92446000
O	19.96530588	24.54358214	3.92446000
O	12.34155588	11.08838607	4.81224000
O	12.34155588	21.57543214	4.81224000
O	27.58904776	11.08838607	4.81224000
O	27.58904776	21.57543214	4.81224000
O	16.15343588	11.08838607	4.81224000
O	16.15343588	21.57543214	4.81224000
O	19.96530588	11.08838607	4.81224000
O	19.96530588	21.57543214	4.81224000
O	10.43561588	16.33190607	4.81225000
O	10.43561588	26.81895214	4.81225000
O	25.68310776	16.33190607	4.81225000
O	25.68310776	26.81895214	4.81225000
O	14.24749588	16.33190607	4.81225000
O	14.24749588	26.81895214	4.81225000
O	29.49498776	16.33190607	4.81225000
O	29.49498776	26.81895214	4.81225000
O	18.05936588	16.33190607	4.81225000
O	18.05936588	26.81895214	4.81225000
O	10.43561588	12.55516607	5.38454000
O	10.43561588	23.04221214	5.38454000
O	25.68310776	12.55516607	5.38454000
O	25.68310776	23.04221214	5.38454000
O	14.24749588	12.55516607	5.38454000
O	14.24749588	23.04221214	5.38454000
O	29.49498776	12.55516607	5.38454000
O	29.49498776	23.04221214	5.38454000
O	18.05936588	12.55516607	5.38454000
O	18.05936588	23.04221214	5.38454000
O	12.34155588	17.79868607	5.38454000
O	12.34155588	28.28573214	5.38454000
O	27.58904776	17.79868607	5.38454000
O	27.58904776	28.28573214	5.38454000
O	16.15343588	17.79868607	5.38454000
O	16.15343588	28.28573214	5.38454000
O	19.96530588	17.79868607	5.38454000
O	19.96530588	28.28573214	5.38454000
O	12.34155588	14.83053607	6.27232000
O	12.34155588	25.31758214	6.27232000
O	27.58904776	14.83053607	6.27232000
O	27.58904776	25.31758214	6.27232000
O	16.15343588	14.83053607	6.27232000
O	16.15343588	25.31758214	6.27232000
O	19.96530588	14.83053607	6.27232000
O	19.96530588	25.31758214	6.27232000
O	10.43561588	20.07405607	6.27232000
O	10.43561588	30.56110214	6.27232000
O	25.68310776	20.07405607	6.27232000
O	25.68310776	30.56110214	6.27232000
O	14.24749588	20.07405607	6.27232000
O	14.24749588	30.56110214	6.27232000
O	29.49498776	20.07405607	6.27232000
O	29.49498776	30.56110214	6.27232000
O	18.05936588	20.07405607	6.27232000
O	18.05936588	30.56110214	6.27232000
Ti	6.50916559	9.25013935	8.37798984
Ti	6.54082110	6.39121609	9.11975350
Ti	2.76974968	9.23764391	8.35884810
Ti	0.81815720	4.05198045	8.25138594
Ti	4.65707871	3.97624063	8.28709224
Ti	0.96724793	1.19873230	9.09334968
Ti	4.75544406	1.06382149	8.99925067
Ti	2.80186967	6.32711186	9.11708318
O	6.36460262	7.44564730	7.54208976
O	6.51946271	4.60168384	8.17234508
O	6.65656922	0.39719652	9.32510010
O	6.55077845	8.04662220	10.04251575
O	2.70646094	7.26665231	7.49067426
O	0.89757486	2.20901059	7.49421343
O	4.58781333	2.17922939	7.47760394
O	0.87810796	9.68254389	8.22019380
O	4.66185274	9.71147285	8.26548865
O	2.68999732	4.45563936	8.32602789
O	2.80841883	0.63125470	9.24832997
O	0.84812228	5.92938101	9.39133256
O	4.68304248	5.69144447	9.51116706
O	0.71413188	2.85294839	9.90229737
O	4.93834540	2.71710463	10.00211427
O	2.92962220	8.06984719	9.91338757
Ti	21.94389519	9.24905326	8.24843046
Ti	8.42896483	4.05467611	8.29431059
Ti	23.73468776	4.03361406	8.25070639
Ti	8.42044290	1.09394383	9.05433154
Ti	23.72572598	1.10004694	9.04566664
Ti	21.86086853	6.31890804	9.02517880
Ti	10.34240739	9.30306869	8.44740851
Ti	25.65537253	9.27428700	8.20995530
Ti	14.30549242	9.21851296	8.33873467
Ti	29.52822374	9.18233597	8.35058698
Ti	18.14590367	9.29968093	8.26904006
Ti	12.29677928	4.04630156	8.28632950
Ti	27.49199355	4.00774628	8.45543874
Ti	16.08082046	3.95667187	8.29487016
Ti	19.94380072	4.03118562	8.20659322
Ti	12.29749111	1.09826198	9.03496116
Ti	27.52363157	1.01291767	8.87207812
Ti	16.15142536	1.08484009	9.15846150
Ti	19.99379340	1.16123943	9.10986403
Ti	10.44252402	6.35213423	9.06426746
Ti	25.61472164	6.37718380	9.00448375
Ti	14.08633099	6.32672260	9.10425356
Ti	29.42012920	6.34220127	9.03528220
Ti	18.07462077	6.24115330	9.05343043
O	21.95129767	7.26073702	7.47998249
O	8.43206743	2.19858514	7.47253415
O	23.80010394	2.10803917	7.42833895
O	8.47812622	9.65960595	8.35040533
O	23.85350326	9.79419191	8.35912589
O	21.82911839	4.47352874	8.32418169
O	21.79036040	0.59707855	9.42958511
O	8.46332237	5.99271760	9.25179097
O	23.75599726	5.79204551	9.33976246
O	8.48694159	2.86727347	9.86860247
O	23.80902085	2.84117930	9.87749158
O	21.95170351	8.03388010	9.83146195
O	10.37182664	7.49023960	7.49623378
O	25.75451407	7.30902889	7.44680517
O	14.06409773	7.33275293	7.47116655
O	29.41466449	7.37602490	7.56699874
O	17.94784289	7.36280759	7.40483531
O	12.46054230	2.12820992	7.48659948
O	27.72625092	2.18655497	7.43771538
O	16.06005990	2.05826259	7.59545266
O	20.16309183	2.12987950	7.49549746
O	12.30388352	9.58773414	8.51996498
O	27.53900311	9.71798579	8.48931177
O	16.20662246	9.60737334	8.35321676
O	20.04559288	9.65604152	8.28095809
O	10.40618699	4.51300805	8.24185741
O	25.59107094	4.51650350	8.27359857
O	14.17113669	4.27805161	8.53559293
O	29.39138891	4.43673364	8.44427077
O	17.96430538	4.33458592	8.32174937
O	10.39957249	0.54221496	9.31616970
O	25.68395547	0.57527710	9.07636215
O	14.19701482	0.66013339	9.34731645
O	29.36460491	0.70603493	9.25307858
O	18.09962934	0.63640300	9.37599829
O	12.28262978	5.85954281	9.24631566
O	27.49852101	5.89262131	9.38566582
O	16.09987251	5.80502924	9.36141017
O	19.92726748	5.74533941	9.33276932
O	12.04990997	2.78008295	9.87253927
O	27.19170808	2.73429738	9.86963490
O	16.09906568	2.83557225	9.94769511
O	19.90960439	3.12330658	9.86809984
O	10.38597581	8.08585863	9.91393650
O	25.53689694	8.22642992	9.81333727
O	14.15142306	8.04015585	9.88785289
O	29.53258551	8.15978905	9.94977315
O	18.50723825	8.08346942	9.84849572
Ti	6.68341100	19.73050842	8.21712943
Ti	6.70174389	30.17263989	8.34935899
Ti	6.71670574	16.89457360	9.17372874
Ti	6.70311604	27.26847790	9.09445298
Ti	2.89147295	19.65351441	8.43446477
Ti	2.72871011	30.21667421	8.18240711
Ti	0.97913448	14.53736398	8.38240138
Ti	0.92851166	24.96267251	8.32365627
Ti	4.81367076	14.53789853	8.26483038
Ti	4.69635059	25.03084147	8.28113497
Ti	0.85444025	11.59820223	9.07489870
Ti	1.03436135	22.03937935	9.09762847
Ti	4.70020819	11.59023641	9.02302117
Ti	4.81586012	22.15205628	9.26069206
Ti	2.86959912	16.76803771	9.02255806
Ti	2.82065781	27.35874971	9.14026998
O	6.83073937	17.84985303	7.49799062
O	6.54321464	28.27065791	7.47782650
O	6.70165333	15.07002110	8.23221044
O	6.66265015	25.41345412	8.34721360
O	6.56287828	11.09175269	9.30341039
O	6.65152357	21.53553894	9.36055058
O	6.90458643	18.67225373	9.89124985
O	6.49751710	29.02342102	9.84616314
O	2.91051729	17.90313220	7.49646759
O	2.63325891	28.34821821	7.50622761
O	1.00231099	12.61486539	7.49549041
O	1.07919813	23.03044892	7.46768331
O	4.79375251	12.58724636	7.41131626
O	4.83616392	23.11589496	7.50375454
O	1.06596248	20.09265077	8.59275015
O	0.89759773	30.70593982	8.47357180
O	4.82376169	20.26650209	8.28197858
O	4.73394474	30.60012694	8.23044845
O	2.87624967	14.93590117	8.44384343
O	2.79597746	25.45646271	8.29437824
O	2.81770215	10.97979435	9.32529789
O	2.86043206	21.47188510	9.51987928
O	0.88678577	16.36705369	9.23658418
O	0.98690048	26.84644697	9.21020772
O	4.81061685	16.36835038	9.40502833
O	4.78564182	26.82364412	9.48965333
O	0.93868843	13.25754208	9.96230906
O	1.18971523	23.78725314	9.86594477
O	4.98917879	13.38725440	9.80201958
O	4.82741645	23.88772116	9.92438900
O	2.99254451	18.53482346	9.99246497
O	2.92980014	29.00264455	9.89466234
Ti	21.91103028	19.75383505	8.33368412
Ti	21.76240805	30.18769699	8.32489253
Ti	8.54431677	14.47162725	8.25498755
Ti	8.49833965	24.96776245	8.31676403
Ti	23.77181070	14.52261743	8.28769317
Ti	23.78494575	25.01285409	8.24946510
Ti	8.42921788	11.57500349	9.08425027
Ti	8.60536143	22.01753015	9.14565541
Ti	23.85315921	11.63469187	9.13979721
Ti	23.81081038	22.09086917	8.99498142
Ti	21.91132700	16.88218829	9.08298781
Ti	21.92177981	27.26314851	8.96495186
Ti	10.41105344	19.81502080	8.30420519
Ti	10.48001312	30.15280071	8.28161646
Ti	25.64712627	19.77646296	8.31721927
Ti	25.60257218	30.23433562	8.30717335
Ti	14.25232574	19.52056080	8.35022545
Ti	14.24415660	30.16113051	8.45514750
Ti	29.58761676	19.76264499	8.28438333
Ti	29.54088065	30.26625201	8.33192005
Ti	18.10125775	19.67837261	8.35351514
Ti	18.02403804	30.22836343	8.31813510
Ti	12.37364301	14.45481716	8.37758116
Ti	12.34878978	24.84699480	8.32869505
Ti	27.54618300	14.54118181	8.23944646
Ti	27.64791894	24.88455989	8.25516224
Ti	16.21202580	14.40006734	8.25118805
Ti	16.14312066	24.92035369	8.31724884
Ti	19.99061071	14.47152105	8.31393851
Ti	19.97088104	24.93180448	8.18401437
Ti	12.38032304	11.52851887	9.01880518
Ti	12.44755978	21.87840395	9.08033379
Ti	27.60176142	11.60293380	9.02833663
Ti	27.66741444	21.96598589	9.00747231
Ti	16.24892193	11.49858894	8.95167335
Ti	16.08321218	21.99672497	9.03815749
Ti	20.08669052	11.53105760	9.01822158
Ti	19.88019839	21.96249877	9.06173030
Ti	10.50166695	16.87496119	8.97455564
Ti	10.36824928	27.26646915	9.06261118
Ti	25.72236313	16.83186844	9.14262213
Ti	25.70472197	27.33145478	9.10332523
Ti	14.37699067	16.68223689	9.30336954
Ti	14.21552183	27.22857979	9.10832103
Ti	29.45286876	16.81062756	9.05514515
Ti	29.54871214	27.27530622	8.89954163
Ti	18.14787735	16.75353681	9.04914563
Ti	18.13891874	27.21255684	8.96885771
O	21.75427677	17.79079952	7.40814788
O	21.75082665	28.36650024	7.50966818
O	8.60572922	12.56072123	7.55576521
O	8.67150579	23.08731600	7.48770056
O	23.71803352	12.72904888	7.55742599
O	23.81077187	23.10561100	7.38635416
O	8.57132379	20.24311793	8.27890125
O	8.59811720	30.54825195	8.45840622
O	23.83480672	20.12014044	8.46355868
O	23.64592599	30.79249518	8.14307240
O	21.83356208	14.98130825	8.41035938
O	21.84579048	25.44001067	8.25706826
O	21.98900907	11.08223314	9.53667843
O	21.88868911	21.51888637	9.19624265
O	8.61753483	16.34627873	9.35937618
O	8.53480241	26.75165234	9.38665800
O	23.76185076	16.41798475	9.34799948
O	23.73582634	26.77701548	9.25976599
O	8.44304131	13.28322520	9.97660059
O	8.44325357	23.85279162	9.85714171
O	23.75610647	13.42778160	9.96145142
O	23.73996258	23.80276779	9.74361727
O	21.84692751	18.65568587	9.97657907
O	21.95894985	29.02777557	9.95235092
O	10.28022353	17.85981620	7.42533360
O	10.35038646	28.36624757	7.52421077
O	25.55070403	17.82173404	7.42219851
O	25.52210214	28.26078045	7.45938155
O	14.14964439	17.75313589	7.47539273
O	14.33383775	28.38361576	7.46920466
O	29.58302697	17.82868493	7.48112523
O	29.53845823	28.36293874	7.44020465
O	18.16264442	17.82152328	7.51155681
O	17.97233963	28.39093159	7.46480186
O	12.32394875	12.59688329	7.47496934
O	12.49434169	22.94803667	7.47213103
O	27.62476521	12.50729328	7.37705600
O	27.63733493	23.06124552	7.43127436
O	16.18984763	12.67371074	7.47809660
O	16.32161721	23.09354531	7.49831551
O	19.92317031	12.68411918	7.43332422
O	19.80410108	23.04123246	7.49007298
O	12.30068618	19.93608768	8.52032051
O	12.32691032	30.67586490	8.37790227
O	27.65496331	20.00281999	8.47644330
O	27.56709017	30.56411222	8.37065864
O	16.15998406	20.12122167	8.31450219
O	16.08142741	30.69973873	8.40747919