#p hf/sto-3g

title

0 1
Ti   2.81187400   1.58260000  -2.44779000
Ti   0.90594400   6.82612000  -2.44778000
Ti   4.71781400   6.82612000  -2.44778000
Ti   0.90594400   3.85797000  -1.56000000
Ti   4.71781400   3.85797000  -1.56000000
Ti   2.81187400   9.10149000  -1.56000000
O   2.81187400  10.19857000  -3.17782000
O   0.90594400   4.95504000  -3.17782000
O   4.71781400   4.95504000  -3.17782000
O   0.90594400   1.98690000  -2.29004000
O   4.71781400   1.98690000  -2.29004000
O   2.81187400   7.23042000  -2.29004000
O   2.81187400   3.45367000  -1.71775000
O   0.90594400   8.69720000  -1.71774000
O   4.71781400   8.69720000  -1.71774000
O   0.90594400   5.72904000  -0.82996000
O   4.71781400   5.72904000  -0.82996000
O   2.81187400   0.48552000  -0.82996000
Ti   6.62374588   1.58260000  -2.44779000
Ti  21.87123776   1.58260000  -2.44779000
Ti   8.52968588   6.82612000  -2.44778000
Ti  23.77717776   6.82612000  -2.44778000
Ti   8.52968588   3.85797000  -1.56000000
Ti  23.77717776   3.85797000  -1.56000000
Ti   6.62374588   9.10149000  -1.56000000
Ti  21.87123776   9.10149000  -1.56000000
Ti  10.43561588   1.58260000  -2.44779000
Ti  25.68310776   1.58260000  -2.44779000
Ti  14.24749588   1.58260000  -2.44779000
Ti  29.49498776   1.58260000  -2.44779000
Ti  18.05936588   1.58260000  -2.44779000
Ti  12.34155588   6.82612000  -2.44778000
Ti  27.58904776   6.82612000  -2.44778000
Ti  16.15343588   6.82612000  -2.44778000
Ti  19.96530588   6.82612000  -2.44778000
Ti  12.34155588   3.85797000  -1.56000000
Ti  27.58904776   3.85797000  -1.56000000
Ti  16.15343588   3.85797000  -1.56000000
Ti  19.96530588   3.85797000  -1.56000000
Ti  10.43561588   9.10149000  -1.56000000
Ti  25.68310776   9.10149000  -1.56000000
Ti  14.24749588   9.10149000  -1.56000000
Ti  29.49498776   9.10149000  -1.56000000
Ti  18.05936588   9.10149000  -1.56000000
O   6.62374588  10.19857000  -3.17782000
O  21.87123776  10.19857000  -3.17782000
O   8.52968588   4.95504000  -3.17782000
O  23.77717776   4.95504000  -3.17782000
O   8.52968588   1.98690000  -2.29004000
O  23.77717776   1.98690000  -2.29004000
O   6.62374588   7.23042000  -2.29004000
O  21.87123776   7.23042000  -2.29004000
O   6.62374588   3.45367000  -1.71775000
O  21.87123776   3.45367000  -1.71775000
O   8.52968588   8.69720000  -1.71774000
O  23.77717776   8.69720000  -1.71774000
O   8.52968588   5.72904000  -0.82996000
O  23.77717776   5.72904000  -0.82996000
O   6.62374588   0.48552000  -0.82996000
O  21.87123776   0.48552000  -0.82996000
O  10.43561588  10.19857000  -3.17782000
O  25.68310776  10.19857000  -3.17782000
O  14.24749588  10.19857000  -3.17782000
O  29.49498776  10.19857000  -3.17782000
O  18.05936588  10.19857000  -3.17782000
O  12.34155588   4.95504000  -3.17782000
O  27.58904776   4.95504000  -3.17782000
O  16.15343588   4.95504000  -3.17782000
O  19.96530588   4.95504000  -3.17782000
O  12.34155588   1.98690000  -2.29004000
O  27.58904776   1.98690000  -2.29004000
O  16.15343588   1.98690000  -2.29004000
O  19.96530588   1.98690000  -2.29004000
O  10.43561588   7.23042000  -2.29004000
O  25.68310776   7.23042000  -2.29004000
O  14.24749588   7.23042000  -2.29004000
O  29.49498776   7.23042000  -2.29004000
O  18.05936588   7.23042000  -2.29004000
O  10.43561588   3.45367000  -1.71775000
O  25.68310776   3.45367000  -1.71775000
O  14.24749588   3.45367000  -1.71775000
O  29.49498776   3.45367000  -1.71775000
O  18.05936588   3.45367000  -1.71775000
O  12.34155588   8.69720000  -1.71774000
O  27.58904776   8.69720000  -1.71774000
O  16.15343588   8.69720000  -1.71774000
O  19.96530588   8.69720000  -1.71774000
O  12.34155588   5.72904000  -0.82996000
O  27.58904776   5.72904000  -0.82996000
O  16.15343588   5.72904000  -0.82996000
O  19.96530588   5.72904000  -0.82996000
O  10.43561588   0.48552000  -0.82996000
O  25.68310776   0.48552000  -0.82996000
O  14.24749588   0.48552000  -0.82996000
O  29.49498776   0.48552000  -0.82996000
O  18.05936588   0.48552000  -0.82996000
Ti   2.81187400  12.06964607  -2.44779000
Ti   2.81187400  22.55669214  -2.44779000
Ti   0.90594400  17.31316607  -2.44778000
Ti   0.90594400  27.80021214  -2.44778000
Ti   4.71781400  17.31316607  -2.44778000
Ti   4.71781400  27.80021214  -2.44778000
Ti   0.90594400  14.34501607  -1.56000000
Ti   0.90594400  24.83206214  -1.56000000
Ti   4.71781400  14.34501607  -1.56000000
Ti   4.71781400  24.83206214  -1.56000000
Ti   2.81187400  19.58853607  -1.56000000
Ti   2.81187400  30.07558214  -1.56000000
O   2.81187400  20.68561607  -3.17782000
O   2.81187400  31.17266214  -3.17782000
O   0.90594400  15.44208607  -3.17782000
O   0.90594400  25.92913214  -3.17782000
O   4.71781400  15.44208607  -3.17782000
O   4.71781400  25.92913214  -3.17782000
O   0.90594400  12.47394607  -2.29004000
O   0.90594400  22.96099214  -2.29004000
O   4.71781400  12.47394607  -2.29004000
O   4.71781400  22.96099214  -2.29004000
O   2.81187400  17.71746607  -2.29004000
O   2.81187400  28.20451214  -2.29004000
O   2.81187400  13.94071607  -1.71775000
O   2.81187400  24.42776214  -1.71775000
O   0.90594400  19.18424607  -1.71774000
O   0.90594400  29.67129214  -1.71774000
O   4.71781400  19.18424607  -1.71774000
O   4.71781400  29.67129214  -1.71774000
O   0.90594400  16.21608607  -0.82996000
O   0.90594400  26.70313214  -0.82996000
O   4.71781400  16.21608607  -0.82996000
O   4.71781400  26.70313214  -0.82996000
O   2.81187400  10.97256607  -0.82996000
O   2.81187400  21.45961214  -0.82996000
Ti   6.62374588  12.06964607  -2.44779000
Ti   6.62374588  22.55669214  -2.44779000
Ti  21.87123776  12.06964607  -2.44779000
Ti  21.87123776  22.55669214  -2.44779000
Ti   8.52968588  17.31316607  -2.44778000
Ti   8.52968588  27.80021214  -2.44778000
Ti  23.77717776  17.31316607  -2.44778000
Ti  23.77717776  27.80021214  -2.44778000
Ti   8.52968588  14.34501607  -1.56000000
Ti   8.52968588  24.83206214  -1.56000000
Ti  23.77717776  14.34501607  -1.56000000
Ti  23.77717776  24.83206214  -1.56000000
Ti   6.62374588  19.58853607  -1.56000000
Ti   6.62374588  30.07558214  -1.56000000
Ti  21.87123776  19.58853607  -1.56000000
Ti  21.87123776  30.07558214  -1.56000000
Ti  10.43561588  12.06964607  -2.44779000
Ti  10.43561588  22.55669214  -2.44779000
Ti  25.68310776  12.06964607  -2.44779000
Ti  25.68310776  22.55669214  -2.44779000
Ti  14.24749588  12.06964607  -2.44779000
Ti  14.24749588  22.55669214  -2.44779000
Ti  29.49498776  12.06964607  -2.44779000
Ti  29.49498776  22.55669214  -2.44779000
Ti  18.05936588  12.06964607  -2.44779000
Ti  18.05936588  22.55669214  -2.44779000
Ti  12.34155588  17.31316607  -2.44778000
Ti  12.34155588  27.80021214  -2.44778000
Ti  27.58904776  17.31316607  -2.44778000
Ti  27.58904776  27.80021214  -2.44778000
Ti  16.15343588  17.31316607  -2.44778000
Ti  16.15343588  27.80021214  -2.44778000
Ti  19.96530588  17.31316607  -2.44778000
Ti  19.96530588  27.80021214  -2.44778000
Ti  12.34155588  14.34501607  -1.56000000
Ti  12.34155588  24.83206214  -1.56000000
Ti  27.58904776  14.34501607  -1.56000000
Ti  27.58904776  24.83206214  -1.56000000
Ti  16.15343588  14.34501607  -1.56000000
Ti  16.15343588  24.83206214  -1.56000000
Ti  19.96530588  14.34501607  -1.56000000
Ti  19.96530588  24.83206214  -1.56000000
Ti  10.43561588  19.58853607  -1.56000000
Ti  10.43561588  30.07558214  -1.56000000
Ti  25.68310776  19.58853607  -1.56000000
Ti  25.68310776  30.07558214  -1.56000000
Ti  14.24749588  19.58853607  -1.56000000
Ti  14.24749588  30.07558214  -1.56000000
Ti  29.49498776  19.58853607  -1.56000000
Ti  29.49498776  30.07558214  -1.56000000
Ti  18.05936588  19.58853607  -1.56000000
Ti  18.05936588  30.07558214  -1.56000000
O   6.62374588  20.68561607  -3.17782000
O   6.62374588  31.17266214  -3.17782000
O  21.87123776  20.68561607  -3.17782000
O  21.87123776  31.17266214  -3.17782000
O   8.52968588  15.44208607  -3.17782000
O   8.52968588  25.92913214  -3.17782000
O  23.77717776  15.44208607  -3.17782000
O  23.77717776  25.92913214  -3.17782000
O   8.52968588  12.47394607  -2.29004000
O   8.52968588  22.96099214  -2.29004000
O  23.77717776  12.47394607  -2.29004000
O  23.77717776  22.96099214  -2.29004000
O   6.62374588  17.71746607  -2.29004000
O   6.62374588  28.20451214  -2.29004000
O  21.87123776  17.71746607  -2.29004000
O  21.87123776  28.20451214  -2.29004000
O   6.62374588  13.94071607  -1.71775000
O   6.62374588  24.42776214  -1.71775000
O  21.87123776  13.94071607  -1.71775000
O  21.87123776  24.42776214  -1.71775000
O   8.52968588  19.18424607  -1.71774000
O   8.52968588  29.67129214  -1.71774000
O  23.77717776  19.18424607  -1.71774000
O  23.77717776  29.67129214  -1.71774000
O   8.52968588  16.21608607  -0.82996000
O   8.52968588  26.70313214  -0.82996000
O  23.77717776  16.21608607  -0.82996000
O  23.77717776  26.70313214  -0.82996000
O   6.62374588  10.97256607  -0.82996000
O   6.62374588  21.45961214  -0.82996000
O  21.87123776  10.97256607  -0.82996000
O  21.87123776  21.45961214  -0.82996000
O  10.43561588  20.68561607  -3.17782000
O  10.43561588  31.17266214  -3.17782000
O  25.68310776  20.68561607  -3.17782000
O  25.68310776  31.17266214  -3.17782000
O  14.24749588  20.68561607  -3.17782000
O  14.24749588  31.17266214  -3.17782000
O  29.49498776  20.68561607  -3.17782000
O  29.49498776  31.17266214  -3.17782000
O  18.05936588  20.68561607  -3.17782000
O  18.05936588  31.17266214  -3.17782000
O  12.34155588  15.44208607  -3.17782000
O  12.34155588  25.92913214  -3.17782000
O  27.58904776  15.44208607  -3.17782000
O  27.58904776  25.92913214  -3.17782000
O  16.15343588  15.44208607  -3.17782000
O  16.15343588  25.92913214  -3.17782000
O  19.96530588  15.44208607  -3.17782000
O  19.96530588  25.92913214  -3.17782000
O  12.34155588  12.47394607  -2.29004000
O  12.34155588  22.96099214  -2.29004000
O  27.58904776  12.47394607  -2.29004000
O  27.58904776  22.96099214  -2.29004000
O  16.15343588  12.47394607  -2.29004000
O  16.15343588  22.96099214  -2.29004000
O  19.96530588  12.47394607  -2.29004000
O  19.96530588  22.96099214  -2.29004000
O  10.43561588  17.71746607  -2.29004000
O  10.43561588  28.20451214  -2.29004000
O  25.68310776  17.71746607  -2.29004000
O  25.68310776  28.20451214  -2.29004000
O  14.24749588  17.71746607  -2.29004000
O  14.24749588  28.20451214  -2.29004000
O  29.49498776  17.71746607  -2.29004000
O  29.49498776  28.20451214  -2.29004000
O  18.05936588  17.71746607  -2.29004000
O  18.05936588  28.20451214  -2.29004000
O  10.43561588  13.94071607  -1.71775000
O  10.43561588  24.42776214  -1.71775000
O  25.68310776  13.94071607  -1.71775000
O  25.68310776  24.42776214  -1.71775000
O  14.24749588  13.94071607  -1.71775000
O  14.24749588  24.42776214  -1.71775000
O  29.49498776  13.94071607  -1.71775000
O  29.49498776  24.42776214  -1.71775000
O  18.05936588  13.94071607  -1.71775000
O  18.05936588  24.42776214  -1.71775000
O  12.34155588  19.18424607  -1.71774000
O  12.34155588  29.67129214  -1.71774000
O  27.58904776  19.18424607  -1.71774000
O  27.58904776  29.67129214  -1.71774000
O  16.15343588  19.18424607  -1.71774000
O  16.15343588  29.67129214  -1.71774000
O  19.96530588  19.18424607  -1.71774000
O  19.96530588  29.67129214  -1.71774000
O  12.34155588  16.21608607  -0.82996000
O  12.34155588  26.70313214  -0.82996000
O  27.58904776  16.21608607  -0.82996000
O  27.58904776  26.70313214  -0.82996000
O  16.15343588  16.21608607  -0.82996000
O  16.15343588  26.70313214  -0.82996000
O  19.96530588  16.21608607  -0.82996000
O  19.96530588  26.70313214  -0.82996000
O  10.43561588  10.97256607  -0.82996000
O  10.43561588  21.45961214  -0.82996000
O  25.68310776  10.97256607  -0.82996000
O  25.68310776  21.45961214  -0.82996000
O  14.24749588  10.97256607  -0.82996000
O  14.24749588  21.45961214  -0.82996000
O  29.49498776  10.97256607  -0.82996000
O  29.49498776  21.45961214  -0.82996000
O  18.05936588  10.97256607  -0.82996000
O  18.05936588  21.45961214  -0.82996000
 Tv                30.49498400    0.00000000    0.00000000
 Tv                 0.00000000   31.46113821    0.00000000
 Tv                 0.00000000    0.00000000   40.00000000


