%chk=benzene.chk
# hf/3-21g geom=connectivity

Title Card Required

0 1
 C                  0.52554745    2.27007296    0.00000000
 C                  1.92070745    2.27007296    0.00000000
 C                  2.61824545    3.47782396    0.00000000
 C                  1.92059145    4.68633296   -0.00119900
 C                  0.52576645    4.68625496   -0.00167800
 C                 -0.17183455    3.47804896   -0.00068200
 H                 -0.02421155    1.31775596    0.00045000
 H                  2.47021545    1.31755996    0.00131500
 H                  3.71792545    3.47790396    0.00063400
 H                  2.47079145    5.63847596   -0.00125800
 H                 -0.02435555    5.63853596   -0.00263100
 H                 -1.27143855    3.47823196   -0.00086200

 1 2 1.5 6 1.5 7 1.0
 2 3 1.5 8 1.0
 3 4 1.5 9 1.0
 4 5 1.5 10 1.0
 5 6 1.5 11 1.0
 6 12 1.0
 7
 8
 9
 10
 11
 12

