%chk=h2.chk
# hf/3-21g geom=connectivity

Title Card Required

0 1
 H                 -2.36350366   -0.72262773    0.00000000
 H                 -2.96350366   -0.72262773    0.00000000

 1 2 1.0
 2

