%chk=joined.chk
%mem=24GB
%nproc=12
#p b3lyp/6-31G*

joined_bi_abs-transf00010116.com

0 1
O	1.00000400	10.19857000	-3.17782000
O	4.81187400	10.19857000	-3.17782000
O	2.90594400	4.95504000	-3.17782000
O	6.71781400	4.95504000	-3.17782000
O	2.90594400	1.98690000	-2.29004000
O	6.71781400	1.98690000	-2.29004000
O	1.00000400	7.23042000	-2.29004000
O	4.81187400	7.23042000	-2.29004000
O	1.00000400	3.45367000	-1.71775000
O	4.81187400	3.45367000	-1.71775000
O	2.90594400	8.69720000	-1.71774000
O	6.71781400	8.69720000	-1.71774000
O	2.90594400	5.72904000	-0.82996000
O	6.71781400	5.72904000	-0.82996000
O	1.00000400	0.48552000	-0.82996000
O	4.81187400	0.48552000	-0.82996000
Ti	1.00000400	1.58260000	-2.44779000
Ti	4.81187400	1.58260000	-2.44779000
Ti	2.90594400	6.82612000	-2.44778000
Ti	6.71781400	6.82612000	-2.44778000
Ti	2.90594400	3.85797000	-1.56000000
Ti	6.71781400	3.85797000	-1.56000000
Ti	1.00000400	9.10149000	-1.56000000
Ti	4.81187400	9.10149000	-1.56000000
O	8.62374588	10.19857000	-3.17782000
O	23.87123776	10.19857000	-3.17782000
O	10.52968588	4.95504000	-3.17782000
O	25.77717776	4.95504000	-3.17782000
O	10.52968588	1.98690000	-2.29004000
O	25.77717776	1.98690000	-2.29004000
O	8.62374588	7.23042000	-2.29004000
O	23.87123776	7.23042000	-2.29004000
O	8.62374588	3.45367000	-1.71775000
O	23.87123776	3.45367000	-1.71775000
O	10.52968588	8.69720000	-1.71774000
O	25.77717776	8.69720000	-1.71774000
O	10.52968588	5.72904000	-0.82996000
O	25.77717776	5.72904000	-0.82996000
O	8.62374588	0.48552000	-0.82996000
O	23.87123776	0.48552000	-0.82996000
O	12.43561588	10.19857000	-3.17782000
O	27.68310776	10.19857000	-3.17782000
O	16.24749588	10.19857000	-3.17782000
O	20.05936588	10.19857000	-3.17782000
O	14.34155588	4.95504000	-3.17782000
O	29.58904776	4.95504000	-3.17782000
O	18.15343588	4.95504000	-3.17782000
O	21.96530588	4.95504000	-3.17782000
O	14.34155588	1.98690000	-2.29004000
O	29.58904776	1.98690000	-2.29004000
O	18.15343588	1.98690000	-2.29004000
O	21.96530588	1.98690000	-2.29004000
O	12.43561588	7.23042000	-2.29004000
O	27.68310776	7.23042000	-2.29004000
O	16.24749588	7.23042000	-2.29004000
O	20.05936588	7.23042000	-2.29004000
O	12.43561588	3.45367000	-1.71775000
O	27.68310776	3.45367000	-1.71775000
O	16.24749588	3.45367000	-1.71775000
O	20.05936588	3.45367000	-1.71775000
O	14.34155588	8.69720000	-1.71774000
O	29.58904776	8.69720000	-1.71774000
O	18.15343588	8.69720000	-1.71774000
O	21.96530588	8.69720000	-1.71774000
O	14.34155588	5.72904000	-0.82996000
O	29.58904776	5.72904000	-0.82996000
O	18.15343588	5.72904000	-0.82996000
O	21.96530588	5.72904000	-0.82996000
O	12.43561588	0.48552000	-0.82996000
O	27.68310776	0.48552000	-0.82996000
O	16.24749588	0.48552000	-0.82996000
O	20.05936588	0.48552000	-0.82996000
Ti	8.62374588	1.58260000	-2.44779000
Ti	23.87123776	1.58260000	-2.44779000
Ti	10.52968588	6.82612000	-2.44778000
Ti	25.77717776	6.82612000	-2.44778000
Ti	10.52968588	3.85797000	-1.56000000
Ti	25.77717776	3.85797000	-1.56000000
Ti	8.62374588	9.10149000	-1.56000000
Ti	23.87123776	9.10149000	-1.56000000
Ti	12.43561588	1.58260000	-2.44779000
Ti	27.68310776	1.58260000	-2.44779000
Ti	16.24749588	1.58260000	-2.44779000
Ti	20.05936588	1.58260000	-2.44779000
Ti	14.34155588	6.82612000	-2.44778000
Ti	29.58904776	6.82612000	-2.44778000
Ti	18.15343588	6.82612000	-2.44778000
Ti	21.96530588	6.82612000	-2.44778000
Ti	14.34155588	3.85797000	-1.56000000
Ti	29.58904776	3.85797000	-1.56000000
Ti	18.15343588	3.85797000	-1.56000000
Ti	21.96530588	3.85797000	-1.56000000
Ti	12.43561588	9.10149000	-1.56000000
Ti	27.68310776	9.10149000	-1.56000000
Ti	16.24749588	9.10149000	-1.56000000
Ti	20.05936588	9.10149000	-1.56000000
O	1.00000400	20.68561607	-3.17782000
O	1.00000400	31.17266214	-3.17782000
O	4.81187400	20.68561607	-3.17782000
O	4.81187400	31.17266214	-3.17782000
O	2.90594400	15.44208607	-3.17782000
O	2.90594400	25.92913214	-3.17782000
O	6.71781400	15.44208607	-3.17782000
O	6.71781400	25.92913214	-3.17782000
O	2.90594400	12.47394607	-2.29004000
O	2.90594400	22.96099214	-2.29004000
O	6.71781400	12.47394607	-2.29004000
O	6.71781400	22.96099214	-2.29004000
O	1.00000400	17.71746607	-2.29004000
O	1.00000400	28.20451214	-2.29004000
O	4.81187400	17.71746607	-2.29004000
O	4.81187400	28.20451214	-2.29004000
O	1.00000400	13.94071607	-1.71775000
O	1.00000400	24.42776214	-1.71775000
O	4.81187400	13.94071607	-1.71775000
O	4.81187400	24.42776214	-1.71775000
O	2.90594400	19.18424607	-1.71774000
O	2.90594400	29.67129214	-1.71774000
O	6.71781400	19.18424607	-1.71774000
O	6.71781400	29.67129214	-1.71774000
O	2.90594400	16.21608607	-0.82996000
O	2.90594400	26.70313214	-0.82996000
O	6.71781400	16.21608607	-0.82996000
O	6.71781400	26.70313214	-0.82996000
O	1.00000400	10.97256607	-0.82996000
O	1.00000400	21.45961214	-0.82996000
O	4.81187400	10.97256607	-0.82996000
O	4.81187400	21.45961214	-0.82996000
Ti	1.00000400	12.06964607	-2.44779000
Ti	1.00000400	22.55669214	-2.44779000
Ti	4.81187400	12.06964607	-2.44779000
Ti	4.81187400	22.55669214	-2.44779000
Ti	2.90594400	17.31316607	-2.44778000
Ti	2.90594400	27.80021214	-2.44778000
Ti	6.71781400	17.31316607	-2.44778000
Ti	6.71781400	27.80021214	-2.44778000
Ti	2.90594400	14.34501607	-1.56000000
Ti	2.90594400	24.83206214	-1.56000000
Ti	6.71781400	14.34501607	-1.56000000
Ti	6.71781400	24.83206214	-1.56000000
Ti	1.00000400	19.58853607	-1.56000000
Ti	1.00000400	30.07558214	-1.56000000
Ti	4.81187400	19.58853607	-1.56000000
Ti	4.81187400	30.07558214	-1.56000000
O	8.62374588	20.68561607	-3.17782000
O	8.62374588	31.17266214	-3.17782000
O	23.87123776	20.68561607	-3.17782000
O	23.87123776	31.17266214	-3.17782000
O	10.52968588	15.44208607	-3.17782000
O	10.52968588	25.92913214	-3.17782000
O	25.77717776	15.44208607	-3.17782000
O	25.77717776	25.92913214	-3.17782000
O	10.52968588	12.47394607	-2.29004000
O	10.52968588	22.96099214	-2.29004000
O	25.77717776	12.47394607	-2.29004000
O	25.77717776	22.96099214	-2.29004000
O	8.62374588	17.71746607	-2.29004000
O	8.62374588	28.20451214	-2.29004000
O	23.87123776	17.71746607	-2.29004000
O	23.87123776	28.20451214	-2.29004000
O	8.62374588	13.94071607	-1.71775000
O	8.62374588	24.42776214	-1.71775000
O	23.87123776	13.94071607	-1.71775000
O	23.87123776	24.42776214	-1.71775000
O	10.52968588	19.18424607	-1.71774000
O	10.52968588	29.67129214	-1.71774000
O	25.77717776	19.18424607	-1.71774000
O	25.77717776	29.67129214	-1.71774000
O	10.52968588	16.21608607	-0.82996000
O	10.52968588	26.70313214	-0.82996000
O	25.77717776	16.21608607	-0.82996000
O	25.77717776	26.70313214	-0.82996000
O	8.62374588	10.97256607	-0.82996000
O	8.62374588	21.45961214	-0.82996000
O	23.87123776	10.97256607	-0.82996000
O	23.87123776	21.45961214	-0.82996000
O	12.43561588	20.68561607	-3.17782000
O	12.43561588	31.17266214	-3.17782000
O	27.68310776	20.68561607	-3.17782000
O	27.68310776	31.17266214	-3.17782000
O	16.24749588	20.68561607	-3.17782000
O	16.24749588	31.17266214	-3.17782000
O	20.05936588	20.68561607	-3.17782000
O	20.05936588	31.17266214	-3.17782000
O	14.34155588	15.44208607	-3.17782000
O	14.34155588	25.92913214	-3.17782000
O	29.58904776	15.44208607	-3.17782000
O	29.58904776	25.92913214	-3.17782000
O	18.15343588	15.44208607	-3.17782000
O	18.15343588	25.92913214	-3.17782000
O	21.96530588	15.44208607	-3.17782000
O	21.96530588	25.92913214	-3.17782000
O	14.34155588	12.47394607	-2.29004000
O	14.34155588	22.96099214	-2.29004000
O	29.58904776	12.47394607	-2.29004000
O	29.58904776	22.96099214	-2.29004000
O	18.15343588	12.47394607	-2.29004000
O	18.15343588	22.96099214	-2.29004000
O	21.96530588	12.47394607	-2.29004000
O	21.96530588	22.96099214	-2.29004000
O	12.43561588	17.71746607	-2.29004000
O	12.43561588	28.20451214	-2.29004000
O	27.68310776	17.71746607	-2.29004000
O	27.68310776	28.20451214	-2.29004000
O	16.24749588	17.71746607	-2.29004000
O	16.24749588	28.20451214	-2.29004000
O	20.05936588	17.71746607	-2.29004000
O	20.05936588	28.20451214	-2.29004000
O	12.43561588	13.94071607	-1.71775000
O	12.43561588	24.42776214	-1.71775000
O	27.68310776	13.94071607	-1.71775000
O	27.68310776	24.42776214	-1.71775000
O	16.24749588	13.94071607	-1.71775000
O	16.24749588	24.42776214	-1.71775000
O	20.05936588	13.94071607	-1.71775000
O	20.05936588	24.42776214	-1.71775000
O	14.34155588	19.18424607	-1.71774000
O	14.34155588	29.67129214	-1.71774000
O	29.58904776	19.18424607	-1.71774000
O	29.58904776	29.67129214	-1.71774000
O	18.15343588	19.18424607	-1.71774000
O	18.15343588	29.67129214	-1.71774000
O	21.96530588	19.18424607	-1.71774000
O	21.96530588	29.67129214	-1.71774000
O	14.34155588	16.21608607	-0.82996000
O	14.34155588	26.70313214	-0.82996000
O	29.58904776	16.21608607	-0.82996000
O	29.58904776	26.70313214	-0.82996000
O	18.15343588	16.21608607	-0.82996000
O	18.15343588	26.70313214	-0.82996000
O	21.96530588	16.21608607	-0.82996000
O	21.96530588	26.70313214	-0.82996000
O	12.43561588	10.97256607	-0.82996000
O	12.43561588	21.45961214	-0.82996000
O	27.68310776	10.97256607	-0.82996000
O	27.68310776	21.45961214	-0.82996000
O	16.24749588	10.97256607	-0.82996000
O	16.24749588	21.45961214	-0.82996000
O	20.05936588	10.97256607	-0.82996000
O	20.05936588	21.45961214	-0.82996000
Ti	8.62374588	12.06964607	-2.44779000
Ti	8.62374588	22.55669214	-2.44779000
Ti	23.87123776	12.06964607	-2.44779000
Ti	23.87123776	22.55669214	-2.44779000
Ti	10.52968588	17.31316607	-2.44778000
Ti	10.52968588	27.80021214	-2.44778000
Ti	25.77717776	17.31316607	-2.44778000
Ti	25.77717776	27.80021214	-2.44778000
Ti	10.52968588	14.34501607	-1.56000000
Ti	10.52968588	24.83206214	-1.56000000
Ti	25.77717776	14.34501607	-1.56000000
Ti	25.77717776	24.83206214	-1.56000000
Ti	8.62374588	19.58853607	-1.56000000
Ti	8.62374588	30.07558214	-1.56000000
Ti	23.87123776	19.58853607	-1.56000000
Ti	23.87123776	30.07558214	-1.56000000
Ti	12.43561588	12.06964607	-2.44779000
Ti	12.43561588	22.55669214	-2.44779000
Ti	27.68310776	12.06964607	-2.44779000
Ti	27.68310776	22.55669214	-2.44779000
Ti	16.24749588	12.06964607	-2.44779000
Ti	16.24749588	22.55669214	-2.44779000
Ti	20.05936588	12.06964607	-2.44779000
Ti	20.05936588	22.55669214	-2.44779000
Ti	14.34155588	17.31316607	-2.44778000
Ti	14.34155588	27.80021214	-2.44778000
Ti	29.58904776	17.31316607	-2.44778000
Ti	29.58904776	27.80021214	-2.44778000
Ti	18.15343588	17.31316607	-2.44778000
Ti	18.15343588	27.80021214	-2.44778000
Ti	21.96530588	17.31316607	-2.44778000
Ti	21.96530588	27.80021214	-2.44778000
Ti	14.34155588	14.34501607	-1.56000000
Ti	14.34155588	24.83206214	-1.56000000
Ti	29.58904776	14.34501607	-1.56000000
Ti	29.58904776	24.83206214	-1.56000000
Ti	18.15343588	14.34501607	-1.56000000
Ti	18.15343588	24.83206214	-1.56000000
Ti	21.96530588	14.34501607	-1.56000000
Ti	21.96530588	24.83206214	-1.56000000
Ti	12.43561588	19.58853607	-1.56000000
Ti	12.43561588	30.07558214	-1.56000000
Ti	27.68310776	19.58853607	-1.56000000
Ti	27.68310776	30.07558214	-1.56000000
Ti	16.24749588	19.58853607	-1.56000000
Ti	16.24749588	30.07558214	-1.56000000
Ti	20.05936588	19.58853607	-1.56000000
Ti	20.05936588	30.07558214	-1.56000000
O	1.00000400	8.81302000	0.37332000
O	4.81187400	8.81302000	0.37332000
O	2.90594400	3.56949000	0.37332000
O	6.71781400	3.56949000	0.37332000
O	2.90594400	0.60134000	1.26110000
O	6.71781400	0.60134000	1.26110000
O	1.00000400	5.84486000	1.26111000
O	4.81187400	5.84486000	1.26111000
O	1.00000400	2.06812000	1.83340000
O	4.81187400	2.06812000	1.83340000
O	2.90594400	7.31164000	1.83340000
O	6.71781400	7.31164000	1.83340000
O	2.90594400	4.34349000	2.72118000
O	6.71781400	4.34349000	2.72118000
O	1.00000400	9.58701000	2.72118000
O	4.81187400	9.58701000	2.72118000
Ti	1.00000400	0.19704000	1.10336000
Ti	4.81187400	0.19704000	1.10336000
Ti	2.90594400	5.44057000	1.10336000
Ti	6.71781400	5.44057000	1.10336000
Ti	2.90594400	2.47241000	1.99114000
Ti	6.71781400	2.47241000	1.99114000
Ti	1.00000400	7.71594000	1.99115000
Ti	4.81187400	7.71594000	1.99115000
O	8.62374588	8.81302000	0.37332000
O	23.87123776	8.81302000	0.37332000
O	10.52968588	3.56949000	0.37332000
O	25.77717776	3.56949000	0.37332000
O	10.52968588	0.60134000	1.26110000
O	25.77717776	0.60134000	1.26110000
O	8.62374588	5.84486000	1.26111000
O	23.87123776	5.84486000	1.26111000
O	8.62374588	2.06812000	1.83340000
O	23.87123776	2.06812000	1.83340000
O	10.52968588	7.31164000	1.83340000
O	25.77717776	7.31164000	1.83340000
O	10.52968588	4.34349000	2.72118000
O	25.77717776	4.34349000	2.72118000
O	8.62374588	9.58701000	2.72118000
O	23.87123776	9.58701000	2.72118000
O	12.43561588	8.81302000	0.37332000
O	27.68310776	8.81302000	0.37332000
O	16.24749588	8.81302000	0.37332000
O	20.05936588	8.81302000	0.37332000
O	14.34155588	3.56949000	0.37332000
O	29.58904776	3.56949000	0.37332000
O	18.15343588	3.56949000	0.37332000
O	21.96530588	3.56949000	0.37332000
O	14.34155588	0.60134000	1.26110000
O	29.58904776	0.60134000	1.26110000
O	18.15343588	0.60134000	1.26110000
O	21.96530588	0.60134000	1.26110000
O	12.43561588	5.84486000	1.26111000
O	27.68310776	5.84486000	1.26111000
O	16.24749588	5.84486000	1.26111000
O	20.05936588	5.84486000	1.26111000
O	12.43561588	2.06812000	1.83340000
O	27.68310776	2.06812000	1.83340000
O	16.24749588	2.06812000	1.83340000
O	20.05936588	2.06812000	1.83340000
O	14.34155588	7.31164000	1.83340000
O	29.58904776	7.31164000	1.83340000
O	18.15343588	7.31164000	1.83340000
O	21.96530588	7.31164000	1.83340000
O	14.34155588	4.34349000	2.72118000
O	29.58904776	4.34349000	2.72118000
O	18.15343588	4.34349000	2.72118000
O	21.96530588	4.34349000	2.72118000
O	12.43561588	9.58701000	2.72118000
O	27.68310776	9.58701000	2.72118000
O	16.24749588	9.58701000	2.72118000
O	20.05936588	9.58701000	2.72118000
Ti	8.62374588	0.19704000	1.10336000
Ti	23.87123776	0.19704000	1.10336000
Ti	10.52968588	5.44057000	1.10336000
Ti	25.77717776	5.44057000	1.10336000
Ti	10.52968588	2.47241000	1.99114000
Ti	25.77717776	2.47241000	1.99114000
Ti	8.62374588	7.71594000	1.99115000
Ti	23.87123776	7.71594000	1.99115000
Ti	12.43561588	0.19704000	1.10336000
Ti	27.68310776	0.19704000	1.10336000
Ti	16.24749588	0.19704000	1.10336000
Ti	20.05936588	0.19704000	1.10336000
Ti	14.34155588	5.44057000	1.10336000
Ti	29.58904776	5.44057000	1.10336000
Ti	18.15343588	5.44057000	1.10336000
Ti	21.96530588	5.44057000	1.10336000
Ti	14.34155588	2.47241000	1.99114000
Ti	29.58904776	2.47241000	1.99114000
Ti	18.15343588	2.47241000	1.99114000
Ti	21.96530588	2.47241000	1.99114000
Ti	12.43561588	7.71594000	1.99115000
Ti	27.68310776	7.71594000	1.99115000
Ti	16.24749588	7.71594000	1.99115000
Ti	20.05936588	7.71594000	1.99115000
O	1.00000400	19.30006607	0.37332000
O	1.00000400	29.78711214	0.37332000
O	4.81187400	19.30006607	0.37332000
O	4.81187400	29.78711214	0.37332000
O	2.90594400	14.05653607	0.37332000
O	2.90594400	24.54358214	0.37332000
O	6.71781400	14.05653607	0.37332000
O	6.71781400	24.54358214	0.37332000
O	2.90594400	11.08838607	1.26110000
O	2.90594400	21.57543214	1.26110000
O	6.71781400	11.08838607	1.26110000
O	6.71781400	21.57543214	1.26110000
O	1.00000400	16.33190607	1.26111000
O	1.00000400	26.81895214	1.26111000
O	4.81187400	16.33190607	1.26111000
O	4.81187400	26.81895214	1.26111000
O	1.00000400	12.55516607	1.83340000
O	1.00000400	23.04221214	1.83340000
O	4.81187400	12.55516607	1.83340000
O	4.81187400	23.04221214	1.83340000
O	2.90594400	17.79868607	1.83340000
O	2.90594400	28.28573214	1.83340000
O	6.71781400	17.79868607	1.83340000
O	6.71781400	28.28573214	1.83340000
O	2.90594400	14.83053607	2.72118000
O	2.90594400	25.31758214	2.72118000
O	6.71781400	14.83053607	2.72118000
O	6.71781400	25.31758214	2.72118000
O	1.00000400	20.07405607	2.72118000
O	1.00000400	30.56110214	2.72118000
O	4.81187400	20.07405607	2.72118000
O	4.81187400	30.56110214	2.72118000
Ti	1.00000400	10.68408607	1.10336000
Ti	1.00000400	21.17113214	1.10336000
Ti	4.81187400	10.68408607	1.10336000
Ti	4.81187400	21.17113214	1.10336000
Ti	2.90594400	15.92761607	1.10336000
Ti	2.90594400	26.41466214	1.10336000
Ti	6.71781400	15.92761607	1.10336000
Ti	6.71781400	26.41466214	1.10336000
Ti	2.90594400	12.95945607	1.99114000
Ti	2.90594400	23.44650214	1.99114000
Ti	6.71781400	12.95945607	1.99114000
Ti	6.71781400	23.44650214	1.99114000
Ti	1.00000400	18.20298607	1.99115000
Ti	1.00000400	28.69003214	1.99115000
Ti	4.81187400	18.20298607	1.99115000
Ti	4.81187400	28.69003214	1.99115000
O	8.62374588	19.30006607	0.37332000
O	8.62374588	29.78711214	0.37332000
O	23.87123776	19.30006607	0.37332000
O	23.87123776	29.78711214	0.37332000
O	10.52968588	14.05653607	0.37332000
O	10.52968588	24.54358214	0.37332000
O	25.77717776	14.05653607	0.37332000
O	25.77717776	24.54358214	0.37332000
O	10.52968588	11.08838607	1.26110000
O	10.52968588	21.57543214	1.26110000
O	25.77717776	11.08838607	1.26110000
O	25.77717776	21.57543214	1.26110000
O	8.62374588	16.33190607	1.26111000
O	8.62374588	26.81895214	1.26111000
O	23.87123776	16.33190607	1.26111000
O	23.87123776	26.81895214	1.26111000
O	8.62374588	12.55516607	1.83340000
O	8.62374588	23.04221214	1.83340000
O	23.87123776	12.55516607	1.83340000
O	23.87123776	23.04221214	1.83340000
O	10.52968588	17.79868607	1.83340000
O	10.52968588	28.28573214	1.83340000
O	25.77717776	17.79868607	1.83340000
O	25.77717776	28.28573214	1.83340000
O	10.52968588	14.83053607	2.72118000
O	10.52968588	25.31758214	2.72118000
O	25.77717776	14.83053607	2.72118000
O	25.77717776	25.31758214	2.72118000
O	8.62374588	20.07405607	2.72118000
O	8.62374588	30.56110214	2.72118000
O	23.87123776	20.07405607	2.72118000
O	23.87123776	30.56110214	2.72118000
O	12.43561588	19.30006607	0.37332000
O	12.43561588	29.78711214	0.37332000
O	27.68310776	19.30006607	0.37332000
O	27.68310776	29.78711214	0.37332000
O	16.24749588	19.30006607	0.37332000
O	16.24749588	29.78711214	0.37332000
O	20.05936588	19.30006607	0.37332000
O	20.05936588	29.78711214	0.37332000
O	14.34155588	14.05653607	0.37332000
O	14.34155588	24.54358214	0.37332000
O	29.58904776	14.05653607	0.37332000
O	29.58904776	24.54358214	0.37332000
O	18.15343588	14.05653607	0.37332000
O	18.15343588	24.54358214	0.37332000
O	21.96530588	14.05653607	0.37332000
O	21.96530588	24.54358214	0.37332000
O	14.34155588	11.08838607	1.26110000
O	14.34155588	21.57543214	1.26110000
O	29.58904776	11.08838607	1.26110000
O	29.58904776	21.57543214	1.26110000
O	18.15343588	11.08838607	1.26110000
O	18.15343588	21.57543214	1.26110000
O	21.96530588	11.08838607	1.26110000
O	21.96530588	21.57543214	1.26110000
O	12.43561588	16.33190607	1.26111000
O	12.43561588	26.81895214	1.26111000
O	27.68310776	16.33190607	1.26111000
O	27.68310776	26.81895214	1.26111000
O	16.24749588	16.33190607	1.26111000
O	16.24749588	26.81895214	1.26111000
O	20.05936588	16.33190607	1.26111000
O	20.05936588	26.81895214	1.26111000
O	12.43561588	12.55516607	1.83340000
O	12.43561588	23.04221214	1.83340000
O	27.68310776	12.55516607	1.83340000
O	27.68310776	23.04221214	1.83340000
O	16.24749588	12.55516607	1.83340000
O	16.24749588	23.04221214	1.83340000
O	20.05936588	12.55516607	1.83340000
O	20.05936588	23.04221214	1.83340000
O	14.34155588	17.79868607	1.83340000
O	14.34155588	28.28573214	1.83340000
O	29.58904776	17.79868607	1.83340000
O	29.58904776	28.28573214	1.83340000
O	18.15343588	17.79868607	1.83340000
O	18.15343588	28.28573214	1.83340000
O	21.96530588	17.79868607	1.83340000
O	21.96530588	28.28573214	1.83340000
O	14.34155588	14.83053607	2.72118000
O	14.34155588	25.31758214	2.72118000
O	29.58904776	14.83053607	2.72118000
O	29.58904776	25.31758214	2.72118000
O	18.15343588	14.83053607	2.72118000
O	18.15343588	25.31758214	2.72118000
O	21.96530588	14.83053607	2.72118000
O	21.96530588	25.31758214	2.72118000
O	12.43561588	20.07405607	2.72118000
O	12.43561588	30.56110214	2.72118000
O	27.68310776	20.07405607	2.72118000
O	27.68310776	30.56110214	2.72118000
O	16.24749588	20.07405607	2.72118000
O	16.24749588	30.56110214	2.72118000
O	20.05936588	20.07405607	2.72118000
O	20.05936588	30.56110214	2.72118000
Ti	8.62374588	10.68408607	1.10336000
Ti	8.62374588	21.17113214	1.10336000
Ti	23.87123776	10.68408607	1.10336000
Ti	23.87123776	21.17113214	1.10336000
Ti	10.52968588	15.92761607	1.10336000
Ti	10.52968588	26.41466214	1.10336000
Ti	25.77717776	15.92761607	1.10336000
Ti	25.77717776	26.41466214	1.10336000
Ti	10.52968588	12.95945607	1.99114000
Ti	10.52968588	23.44650214	1.99114000
Ti	25.77717776	12.95945607	1.99114000
Ti	25.77717776	23.44650214	1.99114000
Ti	8.62374588	18.20298607	1.99115000
Ti	8.62374588	28.69003214	1.99115000
Ti	23.87123776	18.20298607	1.99115000
Ti	23.87123776	28.69003214	1.99115000
Ti	12.43561588	10.68408607	1.10336000
Ti	12.43561588	21.17113214	1.10336000
Ti	27.68310776	10.68408607	1.10336000
Ti	27.68310776	21.17113214	1.10336000
Ti	16.24749588	10.68408607	1.10336000
Ti	16.24749588	21.17113214	1.10336000
Ti	20.05936588	10.68408607	1.10336000
Ti	20.05936588	21.17113214	1.10336000
Ti	14.34155588	15.92761607	1.10336000
Ti	14.34155588	26.41466214	1.10336000
Ti	29.58904776	15.92761607	1.10336000
Ti	29.58904776	26.41466214	1.10336000
Ti	18.15343588	15.92761607	1.10336000
Ti	18.15343588	26.41466214	1.10336000
Ti	21.96530588	15.92761607	1.10336000
Ti	21.96530588	26.41466214	1.10336000
Ti	14.34155588	12.95945607	1.99114000
Ti	14.34155588	23.44650214	1.99114000
Ti	29.58904776	12.95945607	1.99114000
Ti	29.58904776	23.44650214	1.99114000
Ti	18.15343588	12.95945607	1.99114000
Ti	18.15343588	23.44650214	1.99114000
Ti	21.96530588	12.95945607	1.99114000
Ti	21.96530588	23.44650214	1.99114000
Ti	12.43561588	18.20298607	1.99115000
Ti	12.43561588	28.69003214	1.99115000
Ti	27.68310776	18.20298607	1.99115000
Ti	27.68310776	28.69003214	1.99115000
Ti	16.24749588	18.20298607	1.99115000
Ti	16.24749588	28.69003214	1.99115000
Ti	20.05936588	18.20298607	1.99115000
Ti	20.05936588	28.69003214	1.99115000
O	8.66822991	7.33344833	3.94540458
O	8.63179885	4.46858574	4.62924694
O	8.61179023	0.64185738	5.84976398
O	8.40622968	8.00478477	6.33563935
O	0.94449247	7.34737668	3.97285252
O	5.04633329	7.39913295	3.92588786
O	3.13670258	2.15209196	3.94359047
O	6.53037561	2.16486644	3.98684168
O	2.82827822	9.59556418	4.81280816
O	6.66166191	9.70675119	4.80080688
O	0.92990575	4.35384249	4.75886968
O	4.79563550	4.49361862	4.61003606
O	1.03298145	0.64892810	5.66689055
O	4.80470136	0.59489639	5.92544630
O	2.93474112	5.88971500	5.76334102
O	6.74066576	5.74360311	5.92473331
O	2.83611186	2.83731570	6.34881834
O	6.72311531	2.96193457	6.36464485
O	0.83191668	8.06190452	6.41996469
O	4.59298968	8.26099350	6.30576437
Ti	0.94815147	9.16012262	4.83757920
Ti	4.73292887	9.30081906	4.67419523
Ti	2.91486550	4.03259216	4.74857574
Ti	6.69048940	3.99988204	4.79871894
Ti	2.93615049	1.07356069	5.41174207
Ti	6.69411276	1.09854146	5.53901308
Ti	0.99541758	6.33259240	5.57571418
Ti	4.79567814	6.40714548	5.59243530
O	24.13201448	7.33375879	3.84852136
O	10.77547363	2.24756595	3.89341126
O	25.86012039	2.00184034	3.91571098
O	10.43292807	9.66367001	4.84759511
O	25.78085497	9.65798124	4.80276489
O	24.14151306	4.46488543	5.11335052
O	23.89542507	0.52915374	5.82921639
O	10.53338869	5.87969072	5.95187564
O	25.89763347	6.14971833	6.30704435
O	10.60684021	2.91105927	6.35047923
O	25.90963148	2.74178618	6.41270734
O	23.68888267	8.12239100	6.20408875
O	12.39714727	7.40088085	3.97299015
O	27.64003905	7.35025234	4.03463007
O	16.31639717	7.28576966	3.90363541
O	20.19816115	7.39418479	3.92934667
O	14.38821679	2.18190668	3.89151051
O	29.56245242	2.11633802	3.84114009
O	18.24465513	2.10434546	3.86216437
O	22.33627863	2.06010947	3.92893035
O	14.44273990	9.83726287	4.77940825
O	29.59405188	9.63027982	4.83789644
O	18.05455898	9.63872926	5.06229892
O	21.89184332	9.67546593	4.63562683
O	12.40824492	4.60145004	4.83247263
O	27.66415579	4.52092289	4.79627101
O	16.18208692	4.39777472	4.80239892
O	20.11652211	4.47666537	4.80819992
O	12.34338391	0.80697505	5.79210813
O	27.74191813	0.49898060	5.66843410
O	16.33224734	0.63779512	5.65482324
O	20.04005852	0.71314647	5.51222889
O	14.29524058	5.85590162	5.74081625
O	29.57636685	5.79364134	5.82659691
O	18.04122288	5.82923607	5.71398429
O	22.09017942	5.99142481	5.54502945
O	14.49353016	2.92022769	6.42976023
O	29.66783900	2.76435998	6.33330648
O	18.18154652	2.73792083	6.42326023
O	21.71328301	2.86034849	6.28661171
O	12.53261774	8.19384767	6.33155994
O	27.74687232	8.16415507	6.48575199
O	16.24051555	7.96061100	6.37158182
O	20.07884880	7.96804773	6.35398932
Ti	8.53466027	9.13516160	4.77632321
Ti	23.80638388	9.30521593	4.74469711
Ti	10.52684194	4.10034445	4.72750327
Ti	25.86605676	3.82417514	4.64302626
Ti	10.44850496	1.21667310	5.45532100
Ti	25.72139172	1.00924419	5.59032010
Ti	8.61765939	6.27124874	5.56847265
Ti	24.15978649	6.44871560	5.43497752
Ti	12.43952197	9.35445290	4.71096735
Ti	27.65912867	9.22251318	4.75020650
Ti	16.26910467	9.10033539	4.63150846
Ti	20.00334232	9.20511181	4.86277483
Ti	14.31157620	4.03404368	4.70809093
Ti	29.53368738	3.90359572	4.75839939
Ti	18.23207344	3.94343579	4.83206560
Ti	22.10402780	4.09449731	4.80194783
Ti	14.33737265	1.15132087	5.50953912
Ti	29.60330118	1.00164668	5.39815961
Ti	18.16942172	1.02286454	5.43245376
Ti	21.94632234	1.15522253	5.45788147
Ti	12.39775540	6.36198393	5.56473229
Ti	27.65037230	6.33461579	5.62930216
Ti	16.17209678	6.27636978	5.52566028
Ti	20.06019359	6.30619626	5.48445261
O	8.54321112	17.74974754	3.93141734
O	8.69465195	28.37921429	4.02567023
O	8.56709999	14.90204159	4.86854974
O	8.65236276	25.44379032	4.58663512
O	8.59897833	11.09904851	5.69528087
O	8.55030856	21.50273813	5.68995292
O	8.67233111	18.52862430	6.29008882
O	8.72768384	28.97759031	6.53655074
O	0.91687245	17.84744565	3.92078964
O	1.12389758	28.30741909	3.93824473
O	4.78803388	17.81747421	3.87512506
O	4.85979354	28.36855652	3.99014853
O	2.98940709	12.62072645	3.97389855
O	2.90169008	22.97446811	3.96613759
O	6.65685318	12.63219976	3.86566449
O	6.66170595	22.98216594	3.89647960
O	2.85111088	20.10775229	4.77935196
O	2.83294393	30.54199051	5.05968690
O	6.69707282	20.09650517	4.84255751
O	6.67974198	30.73689546	4.70933905
O	1.01465235	14.84604170	4.77577351
O	0.95070212	25.24352560	4.82530608
O	4.77985197	14.90544715	4.82291258
O	4.83076438	25.33299544	4.93919385
O	0.93473604	11.12391556	5.60612116
O	0.98600939	21.32178545	6.05832056
O	4.76601658	11.06622543	5.68686791
O	4.72017488	21.49812617	5.66249433
O	2.97247499	16.21689829	5.87669164
O	2.91830825	26.77326750	5.83308917
O	6.67917274	16.35437388	5.71719337
O	6.72141020	26.77538194	5.79428601
O	2.86404238	13.30334624	6.43130553
O	2.71610336	23.76371848	6.33985532
O	6.66339930	13.27786831	6.18068165
O	6.79385408	23.75779722	6.31288905
O	1.04724362	18.55781147	6.43371624
O	0.91902025	28.90141259	6.34902842
O	4.67230200	18.65153890	6.27064868
O	5.03929796	29.08430632	6.43970660
Ti	0.93548367	19.70319356	4.74530792
Ti	0.95593432	30.12292659	4.78155611
Ti	4.74328744	19.76951234	4.63333375
Ti	4.79367787	30.23210784	4.80549496
Ti	2.94613410	14.41945273	4.78725794
Ti	2.90931938	24.87224571	4.85943782
Ti	6.63678256	14.49393841	4.68806054
Ti	6.74855393	24.93713807	4.77714007
Ti	2.80353154	11.52140136	5.51960341
Ti	2.82600052	21.96282570	5.46945323
Ti	6.70964849	11.58800832	5.40828238
Ti	6.63354978	22.01100666	5.41244648
Ti	1.09531581	16.78698230	5.60508661
Ti	0.97751123	27.17612897	5.50759496
Ti	4.84786601	16.83396393	5.49247821
Ti	4.86239016	27.33224466	5.57799220
H	20.80168647	18.88840673	7.12362017
O	23.70676742	17.88727889	3.85725457
O	23.79408033	28.30451882	3.93916066
O	10.51558676	12.62057501	4.00835311
O	10.45038673	23.11479547	3.98916733
O	25.63136114	12.68626394	3.99202112
O	25.59798119	23.00845588	3.87400662
O	10.46318313	20.17178947	4.78391921
O	10.41250345	30.71286654	4.67754716
O	25.83689380	20.19047365	4.81032152
O	25.81563385	30.57578659	4.93659809
O	23.80066171	14.92407572	4.83570116
O	23.84674661	25.27676315	4.71897997
O	23.82963290	10.98287438	5.82726708
O	23.90147181	21.43815648	5.95717392
O	10.44312729	16.40481086	5.79124269
O	10.45496954	26.77705805	5.89450363
O	25.80084428	16.29597095	5.67037190
O	25.85432651	26.71080984	5.71489972
O	10.54961605	13.27493805	6.37376827
O	10.42535060	23.78863710	6.37454979
O	25.86872625	13.35643785	6.43559587
O	25.88341345	23.72738645	6.29504418
O	23.82436689	18.59613210	6.31352067
O	24.06391440	28.93486108	6.38285076
O	12.27774617	17.96128188	3.97423658
O	12.39714380	28.39571076	3.87836337
O	27.60145744	17.83507304	3.92271807
O	27.64539398	28.36404495	3.98306090
O	16.25107702	17.94621726	3.92662794
O	16.30976002	28.27895740	3.85932198
O	20.23095842	17.91854258	3.86152582
O	19.99194405	28.22273394	3.88431346
O	14.61726338	12.76384772	3.99642950
O	14.38152460	23.18222475	3.98595624
O	29.79381816	12.50641195	3.83692673
O	29.68354906	22.94177299	3.93604387
O	18.17048589	12.46582389	3.95131259
O	18.29659720	23.11728175	3.96689780
O	21.98718298	12.67123006	3.94559876
O	22.08745161	23.00918589	3.94685955
O	14.28563106	20.34610917	4.79122637
O	14.26235879	30.85700462	4.77262448
O	29.49859444	19.97294981	4.98169536
O	29.61410328	30.69548882	4.64177316
O	18.11566344	20.25272585	4.68878593
O	18.15963857	30.66080520	4.89571625
O	21.95319502	20.32584524	4.56690505
O	21.99265957	30.61306494	4.89980802
O	12.39982786	15.09479292	4.62593136
O	12.36060383	25.46684310	4.77736986
O	27.72198379	14.72330693	4.66118801
O	27.66458018	25.41652783	4.64496724
O	16.30402679	14.95653392	5.03160820
O	16.23216478	25.42217510	4.70433043
O	19.86478364	15.07325951	4.85830191
O	20.05716209	25.29594597	4.91780441
O	12.44373204	11.18640860	5.67123307
O	12.39591483	21.63181036	5.76434252
O	27.66471703	11.11391892	5.55627793
O	27.67391010	21.37762990	5.84422855
O	16.22797167	11.56394364	6.05610362
O	16.22059798	21.60058185	5.79215331
O	20.02733192	11.08652347	5.65955933
O	20.03159541	21.59262364	5.78103337
O	14.34610063	16.56516076	5.08309733
O	14.26972097	26.93059643	5.52926471
O	29.63687254	16.27601011	5.83636929
O	29.56438304	26.79919939	5.66302061
O	18.06651158	16.91250736	5.89549376
O	18.13808436	26.75805688	5.69638728
O	21.94133912	16.34191562	5.80185094
O	21.98024469	26.80471318	5.68428853
O	14.06598409	13.48179466	6.28405479
O	14.18337349	23.98234509	6.41143863
O	29.56716806	13.30380140	6.31790521
O	29.45231876	23.81516209	6.34749668
O	18.33675163	13.34638251	6.29963801
O	18.13616264	23.84176899	6.37989854
O	21.69512113	13.41340205	6.31175516