#p hf/sto-3g

title

0 1
O   1.00000400  10.19857000   0.37332000
O   4.81187400  10.19857000   0.37332000
O   2.90594400   4.95504000   0.37332000
O   6.71781400   4.95504000   0.37332000
O   2.90594400   1.98690000   1.26110000
O   6.71781400   1.98690000   1.26110000
O   1.00000400   7.23042000   1.26110000
O   4.81187400   7.23042000   1.26110000
O   1.00000400   3.45367000   1.83339000
O   4.81187400   3.45367000   1.83339000
O   2.90594400   8.69720000   1.83340000
O   6.71781400   8.69720000   1.83340000
O   2.90594400   5.72904000   2.72118000
O   6.71781400   5.72904000   2.72118000
O   1.00000400   0.48552000   2.72118000
O   4.81187400   0.48552000   2.72118000
Ti   1.00000400   1.58260000   1.10335000
Ti   4.81187400   1.58260000   1.10335000
Ti   2.90594400   6.82612000   1.10336000
Ti   6.71781400   6.82612000   1.10336000
Ti   2.90594400   3.85797000   1.99114000
Ti   6.71781400   3.85797000   1.99114000
Ti   1.00000400   9.10149000   1.99114000
Ti   4.81187400   9.10149000   1.99114000
O   8.62374588  10.19857000   0.37332000
O  23.87123776  10.19857000   0.37332000
O  10.52968588   4.95504000   0.37332000
O  25.77717776   4.95504000   0.37332000
O  10.52968588   1.98690000   1.26110000
O  25.77717776   1.98690000   1.26110000
O   8.62374588   7.23042000   1.26110000
O  23.87123776   7.23042000   1.26110000
O   8.62374588   3.45367000   1.83339000
O  23.87123776   3.45367000   1.83339000
O  10.52968588   8.69720000   1.83340000
O  25.77717776   8.69720000   1.83340000
O  10.52968588   5.72904000   2.72118000
O  25.77717776   5.72904000   2.72118000
O   8.62374588   0.48552000   2.72118000
O  23.87123776   0.48552000   2.72118000
O  12.43561588  10.19857000   0.37332000
O  27.68310776  10.19857000   0.37332000
O  16.24749588  10.19857000   0.37332000
O  20.05936588  10.19857000   0.37332000
O  14.34155588   4.95504000   0.37332000
O  29.58904776   4.95504000   0.37332000
O  18.15343588   4.95504000   0.37332000
O  21.96530588   4.95504000   0.37332000
O  14.34155588   1.98690000   1.26110000
O  29.58904776   1.98690000   1.26110000
O  18.15343588   1.98690000   1.26110000
O  21.96530588   1.98690000   1.26110000
O  12.43561588   7.23042000   1.26110000
O  27.68310776   7.23042000   1.26110000
O  16.24749588   7.23042000   1.26110000
O  20.05936588   7.23042000   1.26110000
O  12.43561588   3.45367000   1.83339000
O  27.68310776   3.45367000   1.83339000
O  16.24749588   3.45367000   1.83339000
O  20.05936588   3.45367000   1.83339000
O  14.34155588   8.69720000   1.83340000
O  29.58904776   8.69720000   1.83340000
O  18.15343588   8.69720000   1.83340000
O  21.96530588   8.69720000   1.83340000
O  14.34155588   5.72904000   2.72118000
O  29.58904776   5.72904000   2.72118000
O  18.15343588   5.72904000   2.72118000
O  21.96530588   5.72904000   2.72118000
O  12.43561588   0.48552000   2.72118000
O  27.68310776   0.48552000   2.72118000
O  16.24749588   0.48552000   2.72118000
O  20.05936588   0.48552000   2.72118000
Ti   8.62374588   1.58260000   1.10335000
Ti  23.87123776   1.58260000   1.10335000
Ti  10.52968588   6.82612000   1.10336000
Ti  25.77717776   6.82612000   1.10336000
Ti  10.52968588   3.85797000   1.99114000
Ti  25.77717776   3.85797000   1.99114000
Ti   8.62374588   9.10149000   1.99114000
Ti  23.87123776   9.10149000   1.99114000
Ti  12.43561588   1.58260000   1.10335000
Ti  27.68310776   1.58260000   1.10335000
Ti  16.24749588   1.58260000   1.10335000
Ti  20.05936588   1.58260000   1.10335000
Ti  14.34155588   6.82612000   1.10336000
Ti  29.58904776   6.82612000   1.10336000
Ti  18.15343588   6.82612000   1.10336000
Ti  21.96530588   6.82612000   1.10336000
Ti  14.34155588   3.85797000   1.99114000
Ti  29.58904776   3.85797000   1.99114000
Ti  18.15343588   3.85797000   1.99114000
Ti  21.96530588   3.85797000   1.99114000
Ti  12.43561588   9.10149000   1.99114000
Ti  27.68310776   9.10149000   1.99114000
Ti  16.24749588   9.10149000   1.99114000
Ti  20.05936588   9.10149000   1.99114000
O   1.00000400  20.68561607   0.37332000
O   1.00000400  31.17266214   0.37332000
O   4.81187400  20.68561607   0.37332000
O   4.81187400  31.17266214   0.37332000
O   2.90594400  15.44208607   0.37332000
O   2.90594400  25.92913214   0.37332000
O   6.71781400  15.44208607   0.37332000
O   6.71781400  25.92913214   0.37332000
O   2.90594400  12.47394607   1.26110000
O   2.90594400  22.96099214   1.26110000
O   6.71781400  12.47394607   1.26110000
O   6.71781400  22.96099214   1.26110000
O   1.00000400  17.71746607   1.26110000
O   1.00000400  28.20451214   1.26110000
O   4.81187400  17.71746607   1.26110000
O   4.81187400  28.20451214   1.26110000
O   1.00000400  13.94071607   1.83339000
O   1.00000400  24.42776214   1.83339000
O   4.81187400  13.94071607   1.83339000
O   4.81187400  24.42776214   1.83339000
O   2.90594400  19.18424607   1.83340000
O   2.90594400  29.67129214   1.83340000
O   6.71781400  19.18424607   1.83340000
O   6.71781400  29.67129214   1.83340000
O   2.90594400  16.21608607   2.72118000
O   2.90594400  26.70313214   2.72118000
O   6.71781400  16.21608607   2.72118000
O   6.71781400  26.70313214   2.72118000
O   1.00000400  10.97256607   2.72118000
O   1.00000400  21.45961214   2.72118000
O   4.81187400  10.97256607   2.72118000
O   4.81187400  21.45961214   2.72118000
Ti   1.00000400  12.06964607   1.10335000
Ti   1.00000400  22.55669214   1.10335000
Ti   4.81187400  12.06964607   1.10335000
Ti   4.81187400  22.55669214   1.10335000
Ti   2.90594400  17.31316607   1.10336000
Ti   2.90594400  27.80021214   1.10336000
Ti   6.71781400  17.31316607   1.10336000
Ti   6.71781400  27.80021214   1.10336000
Ti   2.90594400  14.34501607   1.99114000
Ti   2.90594400  24.83206214   1.99114000
Ti   6.71781400  14.34501607   1.99114000
Ti   6.71781400  24.83206214   1.99114000
Ti   1.00000400  19.58853607   1.99114000
Ti   1.00000400  30.07558214   1.99114000
Ti   4.81187400  19.58853607   1.99114000
Ti   4.81187400  30.07558214   1.99114000
O   8.62374588  20.68561607   0.37332000
O   8.62374588  31.17266214   0.37332000
O  23.87123776  20.68561607   0.37332000
O  23.87123776  31.17266214   0.37332000
O  10.52968588  15.44208607   0.37332000
O  10.52968588  25.92913214   0.37332000
O  25.77717776  15.44208607   0.37332000
O  25.77717776  25.92913214   0.37332000
O  10.52968588  12.47394607   1.26110000
O  10.52968588  22.96099214   1.26110000
O  25.77717776  12.47394607   1.26110000
O  25.77717776  22.96099214   1.26110000
O   8.62374588  17.71746607   1.26110000
O   8.62374588  28.20451214   1.26110000
O  23.87123776  17.71746607   1.26110000
O  23.87123776  28.20451214   1.26110000
O   8.62374588  13.94071607   1.83339000
O   8.62374588  24.42776214   1.83339000
O  23.87123776  13.94071607   1.83339000
O  23.87123776  24.42776214   1.83339000
O  10.52968588  19.18424607   1.83340000
O  10.52968588  29.67129214   1.83340000
O  25.77717776  19.18424607   1.83340000
O  25.77717776  29.67129214   1.83340000
O  10.52968588  16.21608607   2.72118000
O  10.52968588  26.70313214   2.72118000
O  25.77717776  16.21608607   2.72118000
O  25.77717776  26.70313214   2.72118000
O   8.62374588  10.97256607   2.72118000
O   8.62374588  21.45961214   2.72118000
O  23.87123776  10.97256607   2.72118000
O  23.87123776  21.45961214   2.72118000
O  12.43561588  20.68561607   0.37332000
O  12.43561588  31.17266214   0.37332000
O  27.68310776  20.68561607   0.37332000
O  27.68310776  31.17266214   0.37332000
O  16.24749588  20.68561607   0.37332000
O  16.24749588  31.17266214   0.37332000
O  20.05936588  20.68561607   0.37332000
O  20.05936588  31.17266214   0.37332000
O  14.34155588  15.44208607   0.37332000
O  14.34155588  25.92913214   0.37332000
O  29.58904776  15.44208607   0.37332000
O  29.58904776  25.92913214   0.37332000
O  18.15343588  15.44208607   0.37332000
O  18.15343588  25.92913214   0.37332000
O  21.96530588  15.44208607   0.37332000
O  21.96530588  25.92913214   0.37332000
O  14.34155588  12.47394607   1.26110000
O  14.34155588  22.96099214   1.26110000
O  29.58904776  12.47394607   1.26110000
O  29.58904776  22.96099214   1.26110000
O  18.15343588  12.47394607   1.26110000
O  18.15343588  22.96099214   1.26110000
O  21.96530588  12.47394607   1.26110000
O  21.96530588  22.96099214   1.26110000
O  12.43561588  17.71746607   1.26110000
O  12.43561588  28.20451214   1.26110000
O  27.68310776  17.71746607   1.26110000
O  27.68310776  28.20451214   1.26110000
O  16.24749588  17.71746607   1.26110000
O  16.24749588  28.20451214   1.26110000
O  20.05936588  17.71746607   1.26110000
O  20.05936588  28.20451214   1.26110000
O  12.43561588  13.94071607   1.83339000
O  12.43561588  24.42776214   1.83339000
O  27.68310776  13.94071607   1.83339000
O  27.68310776  24.42776214   1.83339000
O  16.24749588  13.94071607   1.83339000
O  16.24749588  24.42776214   1.83339000
O  20.05936588  13.94071607   1.83339000
O  20.05936588  24.42776214   1.83339000
O  14.34155588  19.18424607   1.83340000
O  14.34155588  29.67129214   1.83340000
O  29.58904776  19.18424607   1.83340000
O  29.58904776  29.67129214   1.83340000
O  18.15343588  19.18424607   1.83340000
O  18.15343588  29.67129214   1.83340000
O  21.96530588  19.18424607   1.83340000
O  21.96530588  29.67129214   1.83340000
O  14.34155588  16.21608607   2.72118000
O  14.34155588  26.70313214   2.72118000
O  29.58904776  16.21608607   2.72118000
O  29.58904776  26.70313214   2.72118000
O  18.15343588  16.21608607   2.72118000
O  18.15343588  26.70313214   2.72118000
O  21.96530588  16.21608607   2.72118000
O  21.96530588  26.70313214   2.72118000
O  12.43561588  10.97256607   2.72118000
O  12.43561588  21.45961214   2.72118000
O  27.68310776  10.97256607   2.72118000
O  27.68310776  21.45961214   2.72118000
O  16.24749588  10.97256607   2.72118000
O  16.24749588  21.45961214   2.72118000
O  20.05936588  10.97256607   2.72118000
O  20.05936588  21.45961214   2.72118000
Ti   8.62374588  12.06964607   1.10335000
Ti   8.62374588  22.55669214   1.10335000
Ti  23.87123776  12.06964607   1.10335000
Ti  23.87123776  22.55669214   1.10335000
Ti  10.52968588  17.31316607   1.10336000
Ti  10.52968588  27.80021214   1.10336000
Ti  25.77717776  17.31316607   1.10336000
Ti  25.77717776  27.80021214   1.10336000
Ti  10.52968588  14.34501607   1.99114000
Ti  10.52968588  24.83206214   1.99114000
Ti  25.77717776  14.34501607   1.99114000
Ti  25.77717776  24.83206214   1.99114000
Ti   8.62374588  19.58853607   1.99114000
Ti   8.62374588  30.07558214   1.99114000
Ti  23.87123776  19.58853607   1.99114000
Ti  23.87123776  30.07558214   1.99114000
Ti  12.43561588  12.06964607   1.10335000
Ti  12.43561588  22.55669214   1.10335000
Ti  27.68310776  12.06964607   1.10335000
Ti  27.68310776  22.55669214   1.10335000
Ti  16.24749588  12.06964607   1.10335000
Ti  16.24749588  22.55669214   1.10335000
Ti  20.05936588  12.06964607   1.10335000
Ti  20.05936588  22.55669214   1.10335000
Ti  14.34155588  17.31316607   1.10336000
Ti  14.34155588  27.80021214   1.10336000
Ti  29.58904776  17.31316607   1.10336000
Ti  29.58904776  27.80021214   1.10336000
Ti  18.15343588  17.31316607   1.10336000
Ti  18.15343588  27.80021214   1.10336000
Ti  21.96530588  17.31316607   1.10336000
Ti  21.96530588  27.80021214   1.10336000
Ti  14.34155588  14.34501607   1.99114000
Ti  14.34155588  24.83206214   1.99114000
Ti  29.58904776  14.34501607   1.99114000
Ti  29.58904776  24.83206214   1.99114000
Ti  18.15343588  14.34501607   1.99114000
Ti  18.15343588  24.83206214   1.99114000
Ti  21.96530588  14.34501607   1.99114000
Ti  21.96530588  24.83206214   1.99114000
Ti  12.43561588  19.58853607   1.99114000
Ti  12.43561588  30.07558214   1.99114000
Ti  27.68310776  19.58853607   1.99114000
Ti  27.68310776  30.07558214   1.99114000
Ti  16.24749588  19.58853607   1.99114000
Ti  16.24749588  30.07558214   1.99114000
Ti  20.05936588  19.58853607   1.99114000
Ti  20.05936588  30.07558214   1.99114000
O   1.00000400   8.81302000   3.92446000
O   4.81187400   8.81302000   3.92446000
O   2.90594400   3.56949000   3.92446000
O   6.71781400   3.56949000   3.92446000
O   2.90594400   0.60134000   4.81224000
O   6.71781400   0.60134000   4.81224000
O   1.00000400   5.84486000   4.81225000
O   4.81187400   5.84486000   4.81225000
O   1.00000400   2.06812000   5.38454000
O   4.81187400   2.06812000   5.38454000
O   2.90594400   7.31164000   5.38454000
O   6.71781400   7.31164000   5.38454000
O   2.90594400   4.34349000   6.27232000
O   6.71781400   4.34349000   6.27232000
O   1.00000400   9.58701000   6.27232000
O   4.81187400   9.58701000   6.27232000
Ti   1.00000400   0.19704000   4.65450000
Ti   4.81187400   0.19704000   4.65450000
Ti   2.90594400   5.44057000   4.65450000
Ti   6.71781400   5.44057000   4.65450000
Ti   2.90594400   2.47241000   5.54228000
Ti   6.71781400   2.47241000   5.54228000
Ti   1.00000400   7.71594000   5.54229000
Ti   4.81187400   7.71594000   5.54229000
O   8.62374588   8.81302000   3.92446000
O  23.87123776   8.81302000   3.92446000
O  10.52968588   3.56949000   3.92446000
O  25.77717776   3.56949000   3.92446000
O  10.52968588   0.60134000   4.81224000
O  25.77717776   0.60134000   4.81224000
O   8.62374588   5.84486000   4.81225000
O  23.87123776   5.84486000   4.81225000
O   8.62374588   2.06812000   5.38454000
O  23.87123776   2.06812000   5.38454000
O  10.52968588   7.31164000   5.38454000
O  25.77717776   7.31164000   5.38454000
O  10.52968588   4.34349000   6.27232000
O  25.77717776   4.34349000   6.27232000
O   8.62374588   9.58701000   6.27232000
O  23.87123776   9.58701000   6.27232000
O  12.43561588   8.81302000   3.92446000
O  27.68310776   8.81302000   3.92446000
O  16.24749588   8.81302000   3.92446000
O  20.05936588   8.81302000   3.92446000
O  14.34155588   3.56949000   3.92446000
O  29.58904776   3.56949000   3.92446000
O  18.15343588   3.56949000   3.92446000
O  21.96530588   3.56949000   3.92446000
O  14.34155588   0.60134000   4.81224000
O  29.58904776   0.60134000   4.81224000
O  18.15343588   0.60134000   4.81224000
O  21.96530588   0.60134000   4.81224000
O  12.43561588   5.84486000   4.81225000
O  27.68310776   5.84486000   4.81225000
O  16.24749588   5.84486000   4.81225000
O  20.05936588   5.84486000   4.81225000
O  12.43561588   2.06812000   5.38454000
O  27.68310776   2.06812000   5.38454000
O  16.24749588   2.06812000   5.38454000
O  20.05936588   2.06812000   5.38454000
O  14.34155588   7.31164000   5.38454000
O  29.58904776   7.31164000   5.38454000
O  18.15343588   7.31164000   5.38454000
O  21.96530588   7.31164000   5.38454000
O  14.34155588   4.34349000   6.27232000
O  29.58904776   4.34349000   6.27232000
O  18.15343588   4.34349000   6.27232000
O  21.96530588   4.34349000   6.27232000
O  12.43561588   9.58701000   6.27232000
O  27.68310776   9.58701000   6.27232000
O  16.24749588   9.58701000   6.27232000
O  20.05936588   9.58701000   6.27232000
Ti   8.62374588   0.19704000   4.65450000
Ti  23.87123776   0.19704000   4.65450000
Ti  10.52968588   5.44057000   4.65450000
Ti  25.77717776   5.44057000   4.65450000
Ti  10.52968588   2.47241000   5.54228000
Ti  25.77717776   2.47241000   5.54228000
Ti   8.62374588   7.71594000   5.54229000
Ti  23.87123776   7.71594000   5.54229000
Ti  12.43561588   0.19704000   4.65450000
Ti  27.68310776   0.19704000   4.65450000
Ti  16.24749588   0.19704000   4.65450000
Ti  20.05936588   0.19704000   4.65450000
Ti  14.34155588   5.44057000   4.65450000
Ti  29.58904776   5.44057000   4.65450000
Ti  18.15343588   5.44057000   4.65450000
Ti  21.96530588   5.44057000   4.65450000
Ti  14.34155588   2.47241000   5.54228000
Ti  29.58904776   2.47241000   5.54228000
Ti  18.15343588   2.47241000   5.54228000
Ti  21.96530588   2.47241000   5.54228000
Ti  12.43561588   7.71594000   5.54229000
Ti  27.68310776   7.71594000   5.54229000
Ti  16.24749588   7.71594000   5.54229000
Ti  20.05936588   7.71594000   5.54229000
O   1.00000400  19.30006607   3.92446000
O   1.00000400  29.78711214   3.92446000
O   4.81187400  19.30006607   3.92446000
O   4.81187400  29.78711214   3.92446000
O   2.90594400  14.05653607   3.92446000
O   2.90594400  24.54358214   3.92446000
O   6.71781400  14.05653607   3.92446000
O   6.71781400  24.54358214   3.92446000
O   2.90594400  11.08838607   4.81224000
O   2.90594400  21.57543214   4.81224000
O   6.71781400  11.08838607   4.81224000
O   6.71781400  21.57543214   4.81224000
O   1.00000400  16.33190607   4.81225000
O   1.00000400  26.81895214   4.81225000
O   4.81187400  16.33190607   4.81225000
O   4.81187400  26.81895214   4.81225000
O   1.00000400  12.55516607   5.38454000
O   1.00000400  23.04221214   5.38454000
O   4.81187400  12.55516607   5.38454000
O   4.81187400  23.04221214   5.38454000
O   2.90594400  17.79868607   5.38454000
O   2.90594400  28.28573214   5.38454000
O   6.71781400  17.79868607   5.38454000
O   6.71781400  28.28573214   5.38454000
O   2.90594400  14.83053607   6.27232000
O   2.90594400  25.31758214   6.27232000
O   6.71781400  14.83053607   6.27232000
O   6.71781400  25.31758214   6.27232000
O   1.00000400  20.07405607   6.27232000
O   1.00000400  30.56110214   6.27232000
O   4.81187400  20.07405607   6.27232000
O   4.81187400  30.56110214   6.27232000
Ti   1.00000400  10.68408607   4.65450000
Ti   1.00000400  21.17113214   4.65450000
Ti   4.81187400  10.68408607   4.65450000
Ti   4.81187400  21.17113214   4.65450000
Ti   2.90594400  15.92761607   4.65450000
Ti   2.90594400  26.41466214   4.65450000
Ti   6.71781400  15.92761607   4.65450000
Ti   6.71781400  26.41466214   4.65450000
Ti   2.90594400  12.95945607   5.54228000
Ti   2.90594400  23.44650214   5.54228000
Ti   6.71781400  12.95945607   5.54228000
Ti   6.71781400  23.44650214   5.54228000
Ti   1.00000400  18.20298607   5.54229000
Ti   1.00000400  28.69003214   5.54229000
Ti   4.81187400  18.20298607   5.54229000
Ti   4.81187400  28.69003214   5.54229000
O   8.62374588  19.30006607   3.92446000
O   8.62374588  29.78711214   3.92446000
O  23.87123776  19.30006607   3.92446000
O  23.87123776  29.78711214   3.92446000
O  10.52968588  14.05653607   3.92446000
O  10.52968588  24.54358214   3.92446000
O  25.77717776  14.05653607   3.92446000
O  25.77717776  24.54358214   3.92446000
O  10.52968588  11.08838607   4.81224000
O  10.52968588  21.57543214   4.81224000
O  25.77717776  11.08838607   4.81224000
O  25.77717776  21.57543214   4.81224000
O   8.62374588  16.33190607   4.81225000
O   8.62374588  26.81895214   4.81225000
O  23.87123776  16.33190607   4.81225000
O  23.87123776  26.81895214   4.81225000
O   8.62374588  12.55516607   5.38454000
O   8.62374588  23.04221214   5.38454000
O  23.87123776  12.55516607   5.38454000
O  23.87123776  23.04221214   5.38454000
O  10.52968588  17.79868607   5.38454000
O  10.52968588  28.28573214   5.38454000
O  25.77717776  17.79868607   5.38454000
O  25.77717776  28.28573214   5.38454000
O  10.52968588  14.83053607   6.27232000
O  10.52968588  25.31758214   6.27232000
O  25.77717776  14.83053607   6.27232000
O  25.77717776  25.31758214   6.27232000
O   8.62374588  20.07405607   6.27232000
O   8.62374588  30.56110214   6.27232000
O  23.87123776  20.07405607   6.27232000
O  23.87123776  30.56110214   6.27232000
O  12.43561588  19.30006607   3.92446000
O  12.43561588  29.78711214   3.92446000
O  27.68310776  19.30006607   3.92446000
O  27.68310776  29.78711214   3.92446000
O  16.24749588  19.30006607   3.92446000
O  16.24749588  29.78711214   3.92446000
O  20.05936588  19.30006607   3.92446000
O  20.05936588  29.78711214   3.92446000
O  14.34155588  14.05653607   3.92446000
O  14.34155588  24.54358214   3.92446000
O  29.58904776  14.05653607   3.92446000
O  29.58904776  24.54358214   3.92446000
O  18.15343588  14.05653607   3.92446000
O  18.15343588  24.54358214   3.92446000
O  21.96530588  14.05653607   3.92446000
O  21.96530588  24.54358214   3.92446000
O  14.34155588  11.08838607   4.81224000
O  14.34155588  21.57543214   4.81224000
O  29.58904776  11.08838607   4.81224000
O  29.58904776  21.57543214   4.81224000
O  18.15343588  11.08838607   4.81224000
O  18.15343588  21.57543214   4.81224000
O  21.96530588  11.08838607   4.81224000
O  21.96530588  21.57543214   4.81224000
O  12.43561588  16.33190607   4.81225000
O  12.43561588  26.81895214   4.81225000
O  27.68310776  16.33190607   4.81225000
O  27.68310776  26.81895214   4.81225000
O  16.24749588  16.33190607   4.81225000
O  16.24749588  26.81895214   4.81225000
O  20.05936588  16.33190607   4.81225000
O  20.05936588  26.81895214   4.81225000
O  12.43561588  12.55516607   5.38454000
O  12.43561588  23.04221214   5.38454000
O  27.68310776  12.55516607   5.38454000
O  27.68310776  23.04221214   5.38454000
O  16.24749588  12.55516607   5.38454000
O  16.24749588  23.04221214   5.38454000
O  20.05936588  12.55516607   5.38454000
O  20.05936588  23.04221214   5.38454000
O  14.34155588  17.79868607   5.38454000
O  14.34155588  28.28573214   5.38454000
O  29.58904776  17.79868607   5.38454000
O  29.58904776  28.28573214   5.38454000
O  18.15343588  17.79868607   5.38454000
O  18.15343588  28.28573214   5.38454000
O  21.96530588  17.79868607   5.38454000
O  21.96530588  28.28573214   5.38454000
O  14.34155588  14.83053607   6.27232000
O  14.34155588  25.31758214   6.27232000
O  29.58904776  14.83053607   6.27232000
O  29.58904776  25.31758214   6.27232000
O  18.15343588  14.83053607   6.27232000
O  18.15343588  25.31758214   6.27232000
O  21.96530588  14.83053607   6.27232000
O  21.96530588  25.31758214   6.27232000
O  12.43561588  20.07405607   6.27232000
O  12.43561588  30.56110214   6.27232000
O  27.68310776  20.07405607   6.27232000
O  27.68310776  30.56110214   6.27232000
O  16.24749588  20.07405607   6.27232000
O  16.24749588  30.56110214   6.27232000
O  20.05936588  20.07405607   6.27232000
O  20.05936588  30.56110214   6.27232000
Ti   8.62374588  10.68408607   4.65450000
Ti   8.62374588  21.17113214   4.65450000
Ti  23.87123776  10.68408607   4.65450000
Ti  23.87123776  21.17113214   4.65450000
Ti  10.52968588  15.92761607   4.65450000
Ti  10.52968588  26.41466214   4.65450000
Ti  25.77717776  15.92761607   4.65450000
Ti  25.77717776  26.41466214   4.65450000
Ti  10.52968588  12.95945607   5.54228000
Ti  10.52968588  23.44650214   5.54228000
Ti  25.77717776  12.95945607   5.54228000
Ti  25.77717776  23.44650214   5.54228000
Ti   8.62374588  18.20298607   5.54229000
Ti   8.62374588  28.69003214   5.54229000
Ti  23.87123776  18.20298607   5.54229000
Ti  23.87123776  28.69003214   5.54229000
Ti  12.43561588  10.68408607   4.65450000
Ti  12.43561588  21.17113214   4.65450000
Ti  27.68310776  10.68408607   4.65450000
Ti  27.68310776  21.17113214   4.65450000
Ti  16.24749588  10.68408607   4.65450000
Ti  16.24749588  21.17113214   4.65450000
Ti  20.05936588  10.68408607   4.65450000
Ti  20.05936588  21.17113214   4.65450000
Ti  14.34155588  15.92761607   4.65450000
Ti  14.34155588  26.41466214   4.65450000
Ti  29.58904776  15.92761607   4.65450000
Ti  29.58904776  26.41466214   4.65450000
Ti  18.15343588  15.92761607   4.65450000
Ti  18.15343588  26.41466214   4.65450000
Ti  21.96530588  15.92761607   4.65450000
Ti  21.96530588  26.41466214   4.65450000
Ti  14.34155588  12.95945607   5.54228000
Ti  14.34155588  23.44650214   5.54228000
Ti  29.58904776  12.95945607   5.54228000
Ti  29.58904776  23.44650214   5.54228000
Ti  18.15343588  12.95945607   5.54228000
Ti  18.15343588  23.44650214   5.54228000
Ti  21.96530588  12.95945607   5.54228000
Ti  21.96530588  23.44650214   5.54228000
Ti  12.43561588  18.20298607   5.54229000
Ti  12.43561588  28.69003214   5.54229000
Ti  27.68310776  18.20298607   5.54229000
Ti  27.68310776  28.69003214   5.54229000
Ti  16.24749588  18.20298607   5.54229000
Ti  16.24749588  28.69003214   5.54229000
Ti  20.05936588  18.20298607   5.54229000
Ti  20.05936588  28.69003214   5.54229000
O   8.66822991   7.33344833   7.49654458
O   8.63179885   4.46858574   8.18038694
O   8.61179023   0.64185738   9.40090398
O   8.40622968   8.00478477   9.88677935
O   0.94449247   7.34737668   7.52399252
O   5.04633329   7.39913295   7.47702786
O   3.13670258   2.15209196   7.49473047
O   6.53037561   2.16486644   7.53798168
O   2.82827822   9.59556418   8.36394816
O   6.66166191   9.70675119   8.35194688
O   0.92990575   4.35384249   8.31000968
O   4.79563550   4.49361862   8.16117606
O   1.03298145   0.64892810   9.21803055
O   4.80470136   0.59489639   9.47658630
O   2.93474112   5.88971500   9.31448102
O   6.74066576   5.74360311   9.47587331
O   2.83611186   2.83731570   9.89995834
O   6.72311531   2.96193457   9.91578485
O   0.83191668   8.06190452   9.97110469
O   4.59298968   8.26099350   9.85690437
Ti   0.94815147   9.16012262   8.38871920
Ti   4.73292887   9.30081906   8.22533523
Ti   2.91486550   4.03259216   8.29971574
Ti   6.69048940   3.99988204   8.34985894
Ti   2.93615049   1.07356069   8.96288207
Ti   6.69411276   1.09854146   9.09015308
Ti   0.99541758   6.33259240   9.12685418
Ti   4.79567814   6.40714548   9.14357530
O  24.13201448   7.33375879   7.39966136
O  10.77547363   2.24756595   7.44455126
O  25.86012039   2.00184034   7.46685098
O  10.43292807   9.66367001   8.39873511
O  25.78085497   9.65798124   8.35390489
O  24.14151306   4.46488543   8.66449052
O  23.89542507   0.52915374   9.38035639
O  10.53338869   5.87969072   9.50301564
O  25.89763347   6.14971833   9.85818435
O  10.60684021   2.91105927   9.90161923
O  25.90963148   2.74178618   9.96384734
O  23.68888267   8.12239100   9.75522875
O  12.39714727   7.40088085   7.52413015
O  27.64003905   7.35025234   7.58577007
O  16.31639717   7.28576966   7.45477541
O  20.19816115   7.39418479   7.48048667
O  14.38821679   2.18190668   7.44265051
O  29.56245242   2.11633802   7.39228009
O  18.24465513   2.10434546   7.41330437
O  22.33627863   2.06010947   7.48007035
O  14.44273990   9.83726287   8.33054825
O  29.59405188   9.63027982   8.38903644
O  18.05455898   9.63872926   8.61343892
O  21.89184332   9.67546593   8.18676683
O  12.40824492   4.60145004   8.38361263
O  27.66415579   4.52092289   8.34741101
O  16.18208692   4.39777472   8.35353892
O  20.11652211   4.47666537   8.35933992
O  12.34338391   0.80697505   9.34324813
O  27.74191813   0.49898060   9.21957410
O  16.33224734   0.63779512   9.20596324
O  20.04005852   0.71314647   9.06336889
O  14.29524058   5.85590162   9.29195625
O  29.57636685   5.79364134   9.37773691
O  18.04122288   5.82923607   9.26512429
O  22.09017942   5.99142481   9.09616945
O  14.49353016   2.92022769   9.98090023
O  29.66783900   2.76435998   9.88444648
O  18.18154652   2.73792083   9.97440023
O  21.71328301   2.86034849   9.83775171
O  12.53261774   8.19384767   9.88269994
O  27.74687232   8.16415507  10.03689199
O  16.24051555   7.96061100   9.92272182
O  20.07884880   7.96804773   9.90512932
Ti   8.53466027   9.13516160   8.32746321
Ti  23.80638388   9.30521593   8.29583711
Ti  10.52684194   4.10034445   8.27864327
Ti  25.86605676   3.82417514   8.19416626
Ti  10.44850496   1.21667310   9.00646100
Ti  25.72139172   1.00924419   9.14146010
Ti   8.61765939   6.27124874   9.11961265
Ti  24.15978649   6.44871560   8.98611752
Ti  12.43952197   9.35445290   8.26210735
Ti  27.65912867   9.22251318   8.30134650
Ti  16.26910467   9.10033539   8.18264846
Ti  20.00334232   9.20511181   8.41391483
Ti  14.31157620   4.03404368   8.25923093
Ti  29.53368738   3.90359572   8.30953939
Ti  18.23207344   3.94343579   8.38320560
Ti  22.10402780   4.09449731   8.35308783
Ti  14.33737265   1.15132087   9.06067912
Ti  29.60330118   1.00164668   8.94929961
Ti  18.16942172   1.02286454   8.98359376
Ti  21.94632234   1.15522253   9.00902147
Ti  12.39775540   6.36198393   9.11587229
Ti  27.65037230   6.33461579   9.18044216
Ti  16.17209678   6.27636978   9.07680028
Ti  20.06019359   6.30619626   9.03559261
O   8.54321112  17.74974754   7.48255734
O   8.69465195  28.37921429   7.57681023
O   8.56709999  14.90204159   8.41968974
O   8.65236276  25.44379032   8.13777512
O   8.59897833  11.09904851   9.24642087
O   8.55030856  21.50273813   9.24109292
O   8.67233111  18.52862430   9.84122882
O   8.72768384  28.97759031  10.08769074
O   0.91687245  17.84744565   7.47192964
O   1.12389758  28.30741909   7.48938473
O   4.78803388  17.81747421   7.42626506
O   4.85979354  28.36855652   7.54128853
O   2.98940709  12.62072645   7.52503855
O   2.90169008  22.97446811   7.51727759
O   6.65685318  12.63219976   7.41680449
O   6.66170595  22.98216594   7.44761960
O   2.85111088  20.10775229   8.33049196
O   2.83294393  30.54199051   8.61082690
O   6.69707282  20.09650517   8.39369751
O   6.67974198  30.73689546   8.26047905
O   1.01465235  14.84604170   8.32691351
O   0.95070212  25.24352560   8.37644608
O   4.77985197  14.90544715   8.37405258
O   4.83076438  25.33299544   8.49033385
O   0.93473604  11.12391556   9.15726116
O   0.98600939  21.32178545   9.60946056
O   4.76601658  11.06622543   9.23800791
O   4.72017488  21.49812617   9.21363433
O   2.97247499  16.21689829   9.42783164
O   2.91830825  26.77326750   9.38422917
O   6.67917274  16.35437388   9.26833337
O   6.72141020  26.77538194   9.34542601
O   2.86404238  13.30334624   9.98244553
O   2.71610336  23.76371848   9.89099532
O   6.66339930  13.27786831   9.73182165
O   6.79385408  23.75779722   9.86402905
O   1.04724362  18.55781147   9.98485624
O   0.91902025  28.90141259   9.90016842
O   4.67230200  18.65153890   9.82178868
O   5.03929796  29.08430632   9.99084660
Ti   0.93548367  19.70319356   8.29644792
Ti   0.95593432  30.12292659   8.33269611
Ti   4.74328744  19.76951234   8.18447375
Ti   4.79367787  30.23210784   8.35663496
Ti   2.94613410  14.41945273   8.33839794
Ti   2.90931938  24.87224571   8.41057782
Ti   6.63678256  14.49393841   8.23920054
Ti   6.74855393  24.93713807   8.32828007
Ti   2.80353154  11.52140136   9.07074341
Ti   2.82600052  21.96282570   9.02059323
Ti   6.70964849  11.58800832   8.95942238
Ti   6.63354978  22.01100666   8.96358648
Ti   1.09531581  16.78698230   9.15622661