%chk=c3h3.chk
# hf/3-21g geom=connectivity

Title Card Required

0 2
 C                  0.74074075    0.35802469    0.00000000
 C                  2.20116175    0.35802469    0.00000000
 C                  1.49351075    1.60949069    0.00000000
 H                  3.12540138   -0.18112381    0.00000000
 H                  1.50789973    2.67939393    0.00000000
 H                 -0.19066558   -0.16864622    0.00000000

 1 2 1.0 3 1.0 6 1.0
 2 3 1.0 4 1.0
 3 5 1.0
 4
 5
 6

