%chk=pmip.chk
%mem=32GB
%nproc=16
#p b3lyp/gen nosymm guess=read iop(5/13=1,5/7=-2) gfprint

dft projection from 6-31gp to sto-6g

0 1
  C                 -11.30746364  0.46613490  -0.57491844  
  C                 -10.63231274 -0.32322345   0.38533686  
  C                 -10.68620981  1.22212673  -1.58024212  
  C                 -11.32733059 -1.07568195   1.42512522  
  N                  -9.28027365 -0.48864929   0.48186838  
  C                 -11.32871979  1.98601939  -2.61045398  
  N                  -9.32865950  1.35174360  -1.78943022  
  C                 -10.36863652 -1.71352146   2.13825461  
  H                 -12.39648502 -1.10400249   1.57699556  
  C                  -9.09198535 -1.33307669   1.54181681  
  C                 -10.35579889  2.54871428  -3.39452497  
  H                 -12.39820944  2.07182202  -2.72968087  
  C                  -9.08372336  2.14711737  -2.87758111  
  H                 -10.49897314 -2.37531501   2.98205975  
  C                  -7.85237690 -1.81537489   2.01270159  
  N                  -6.33956540 -0.65909048   0.41111602  
  N                  -6.38629953  1.15881019  -1.87677504  
  H                 -10.48808331  3.16668009  -4.27035851  
  C                  -6.59315376 -1.49637259   1.47419968  
  C                  -4.98763082 -0.56430841   0.17900343  
  C                  -6.56439541  2.03046498  -2.90179965  
  C                  -5.02598476  1.01440135  -1.75837930  
  C                  -5.31906814 -1.95973760   1.93898409  
  C                  -4.34745762 -1.40396650   1.14754124  
  C                  -4.35861939  0.20890041  -0.81775243  
  C                  -5.29131210  2.46916026  -3.45889371  
  C                  -4.32982250  1.84042686  -2.74216740  
  H                  -5.18026851 -2.63214924   2.77202239  
  H                  -3.28047503 -1.55095653   1.21946938  
  H                  -5.17293947  3.17124985  -4.27207792  
  H                  -3.25823329  1.92511501  -2.84916818  
  C                  -7.81482013  2.49308701  -3.39572242  
  H                  -7.05103040 -0.18064407  -0.13207546  
  H                  -8.61565100  0.89460061  -1.22979956  
  C                  -2.86170297  0.15781136  -0.85851323  
  C                  -2.09073590  0.71927955   0.17110406  
  C                  -2.18960753 -0.45846436  -1.92463881  
  C                  -0.69792199  0.66732062   0.13161403  
  H                  -2.58975552  1.20525149   1.00509302  
  C                  -0.79610225 -0.50857293  -1.95830077  
  H                  -2.76661002 -0.90968781  -2.72709936  
  C                  -0.02423187  0.05554317  -0.93421245  
  H                  -0.12475223  1.11344563   0.94154643  
  H                  -0.30046700 -0.99950785  -2.79298072  
  C                 -12.80465800  0.50408248  -0.54087201  
  C                 -13.56428951 -0.63001744  -0.86726290  
  C                 -13.48894128  1.67546209  -0.18315707  
  C                 -14.95758706 -0.59038366  -0.83631670  
  H                 -13.05548654 -1.54759797  -1.14938320  
  C                 -14.88308954  1.70867269  -0.15177441  
  H                 -12.92122786  2.56209217   0.08581886  
  C                 -15.64347116  0.57906485  -0.48088347  
  H                 -15.52181162 -1.48370035  -1.09530845  
  H                 -15.38799645  2.62716146   0.13952561  
  C                  -7.85501485 -2.74825679   3.18664585  
  C                  -8.15905136 -2.28591427   4.47548072  
  C                  -7.55535183 -4.10954549   3.02670195  
  C                  -8.16242386 -3.15699748   5.56491183  
  H                  -8.39420164 -1.23530535   4.62228175  
  C                  -7.56157728 -4.97617802   4.11929599  
  H                  -7.32861239 -4.49153479   2.03498903  
  C                  -7.86156236 -4.51643309   5.40866579  
  H                  -8.40206765 -2.77243761   6.55388833  
  H                  -7.33544492 -6.02916913   3.96558080  
  C                 -17.15382039  0.62611998  -0.47667114  
  H                 -17.54658776  0.88994216  -1.46799456  
  H                 -17.58495422 -0.34383271  -0.20611213  
  H                 -17.52973659  1.37314077   0.23048643  
  C                   1.48565442  0.02892177  -0.98868555  
  H                   1.88262285  0.94099160  -1.45450747  
  H                   1.92270114 -0.03835675   0.01355433  
  H                   1.85100001 -0.82060751  -1.57532062  
  C                  -7.83744474 -5.45236673   6.59484675  
  H                  -6.82697670 -5.53281590   7.01793529  
  H                  -8.49746704 -5.10210176   7.39545489  
  H                  -8.15178676 -6.46363217   6.31462036  
  C                  -7.80781679  3.37844565  -4.50650602  
  C                  -7.81012824  4.13818749  -5.46159150  
  C                  -9.90506630  6.09393492  -5.89813611  
  C                  -8.84743196  5.94527226  -6.82559216  
  C                  -7.79418206  4.99141028  -6.59301321  
  C                 -10.91305423  7.00554984  -6.12643747  
  C                  -8.82081958  6.76222594  -8.00378954  
  C                  -9.87943004  7.70343033  -8.22658496  
  C                 -10.90015295  7.79939028  -7.28323285  
  C                  -9.85962246  8.54162762  -9.43671977  
  C                  -8.78283233  8.39857122 -10.36807951  
  C                  -7.72366596  7.46005600 -10.14822896  
  C                  -7.74071611  6.63295064  -8.93599353  
  C                  -6.72902975  5.71354956  -8.65356623  
  C                  -6.75021388  4.90891920  -7.51319963  
  H                  -5.94967528  4.19609785  -7.34369331  
  H                  -5.89216472  5.59748147  -9.33227140  
  H                 -11.72142307  7.11807663  -5.40970149  
  H                 -11.71153804  8.50356226  -7.42544537  
  C                  -6.70918777  7.36541408 -11.10683910  
  C                  -8.76541472  9.20864380 -11.54740107  
  C                  -7.71330515  9.07861658 -12.48628354  
  C                  -6.70245516  8.15837036 -12.25715545  
  H                  -5.89636522  6.66128289 -10.97461406  
  C                  -9.80207121 10.14301646 -11.78570615  
  H                  -5.90764194  8.06796630 -12.99012029  
  C                 -10.83521776 10.26518909 -10.87043604  
  C                 -10.86040798  9.47684728  -9.71652700  
  H                 -11.62278829 10.98434124 -11.06974214  
  H                 -11.69017870  9.61073870  -9.03274332  
  H                  -9.89868405  5.48871231  -4.99768966  
  C                  -9.80707410 10.98942795 -12.99991832  
  C                  -7.67881084  9.89913655 -13.71754744  
  N                  -8.70723962 10.84833443 -13.87362430  
  O                 -10.70137037 11.78686060 -13.24318306  
  O                  -6.79964936  9.78098640 -14.56139846  
  C                  -8.74606414 11.60392492 -15.11692355  
  C                  -8.12114645 12.85790181 -15.29775654  
  C                  -9.46957670 10.98835192 -16.13855383  
  C                  -8.28443160 13.40887036 -16.57917766  
  C                  -9.62423183 11.55456756 -17.40791146  
  H                  -9.92327613 10.02830845 -15.91157537  
  C                  -9.00466226 12.79128114 -17.60108746  
  H                  -7.83417548 14.36729603 -16.80502771  
  H                  -9.07367095 13.30045724 -18.55640242  
  C                 -10.43627543 10.82672987 -18.49190709  
  C                  -9.79903420  9.44535827 -18.77444810  
  C                 -11.89018685 10.62988429 -18.00087293  
  C                 -10.47648152 11.61755351 -19.81346615  
  H                  -8.76901482  9.55440091 -19.13253393  
  H                  -9.77374938  8.81674904 -17.87808894  
  H                 -10.37278924  8.91052931 -19.54163938  
  H                 -12.36980427 11.59432639 -17.79898261  
  H                 -12.48240694 10.10597082 -18.76150734  
  H                 -11.93212944 10.03947991 -17.07957614  
  H                 -11.06274980 11.06522032 -20.55670850  
  H                 -10.94546899 12.60003183 -19.68630321  
  H                  -9.47346997 11.76808243 -20.22896628  
  C                  -7.24855163 13.60518279 -14.25662126  
  C                  -7.78042128 13.48723807 -12.80788360  
  C                  -5.80633826 13.04402720 -14.32315641  
  C                  -7.18380029 15.12071892 -14.56769884  
  H                  -8.84827425 13.72094518 -12.75247689  
  H                  -7.62374497 12.49396338 -12.38426271  
  H                  -7.24231306 14.19572529 -12.16753669  
  H                  -5.37113193 13.21134993 -15.31522749  
  H                  -5.17048833 13.54814447 -13.58375265  
  H                  -5.78023463 11.96851117 -14.13152450  
  H                  -6.62419254 15.62594550 -13.77280641  
  H                  -6.66519568 15.33992546 -15.50617808  
  H                  -8.18339918 15.56820802 -14.61353941  

C H N O 0
STO-6G
****

